&control
 calculation='scf',
 outdir='./',
 prefix="BN",
 verbosity='high',
 wf_collect=.true.,
 etot_conv_thr=1d-5,
 forc_conv_thr=1d-3
 pseudo_dir="~/pseudo-ONCV-proj",
/
&system
 ibrav=0,
 nat=72,
 ntyp=3,
 nbnd=168,
 ecutwfc=55,
 ecutfock=110,
 nspin=2,
 tot_magnetization=0,
 starting_magnetization(1)=1,
 tot_charge=0

!input_dft = 'pbe0'
!exx_fraction = 0.409
/
&electrons
 electron_maxstep=600,
 mixing_beta=0.7,
 conv_thr=1.0D-8,
/
&cell
/
&ions
/
ATOMIC_SPECIES
B  0.0  B_ONCV_PBE-1.0.upf
N  0.0  N_ONCV_PBE-1.0.upf
C  0.0  C_ONCV_PBE-1.0.upf
K_POINTS automatic
1 1 1 0 0 0
CELL_PARAMETERS angstrom
15.04380218  0.          0.        
-7.52188605 13.02832383  0.        
 0.          0.         15.87532077
ATOMIC_POSITIONS crystal
B    0.0553308315 0.1108711978 0.5000000000
B    0.0554791318 0.2776797132 0.5000000000
B    0.0554791410 0.4444657737 0.5000000000
B    0.0553308425 0.6111259870 0.5000000000
B    0.0556080593 0.7778054150 0.5000000000
B    0.0556080445 0.9444689875 0.5000000000
B    0.2220821113 0.1108365752 0.5000000000
B    0.2218119205 0.2773213107 0.5000000000
B    0.2224911038 0.4445787125 0.5000000000
B    0.2218119250 0.6111569482 0.5000000000
B    0.2220821148 0.7779118605 0.5000000000
B    0.2222099570 0.9444381433 0.5000000000
B    0.3888622612 0.1108208598 0.5000000000
B    0.3887471998 0.2766247037 0.5000000000
B    0.3885809197 0.4422931305 0.5000000000
B    0.3885809128 0.6129541387 0.5000000000
B    0.3887472000 0.7787888333 0.5000000000
B    0.3888622575 0.9447077302 0.5000000000
B    0.5555832690 0.1111248062 0.5000000000
B    0.5554485998 0.2780178800 0.5000000000
B    0.5546771915 0.4447544930 0.5000000000
B    0.5546771980 0.7765890455 0.5000000000
B    0.5554485977 0.9440970605 0.5000000000
B    0.7221558170 0.1110139048 0.5000000000
B    0.7221558172 0.2778082813 0.5000000000
B    0.7222063840 0.4446150995 0.5000000000
B    0.7229237745 0.6118614078 0.5000000000
B    0.7229237502 0.7777287060 0.5000000000
B    0.7222063758 0.9442576382 0.5000000000
B    0.8887803088 0.1110190488 0.5000000000
B    0.8888307095 0.2777485363 0.5000000000
B    0.8887803222 0.4444276130 0.5000000000
B    0.8887559275 0.6111418832 0.5000000000
B    0.8895572047 0.7781117715 0.5000000000
B    0.8887559083 0.9442803795 0.5000000000
N    0.1109127122 0.0553731650 0.5000000000
N    0.1106214115 0.2217506670 0.5000000000
N    0.1111321642 0.3888992227 0.5000000000
N    0.1106214292 0.5555370330 0.5000000000
N    0.1109127207 0.7222058488 0.5000000000
N    0.1110158333 0.8888410743 0.5000000000
N    0.2777311558 0.0553860088 0.5000000000
N    0.2774812937 0.2216127327 0.5000000000
N    0.2772685995 0.3879818360 0.5000000000
N    0.2772686045 0.5559530310 0.5000000000
N    0.2774813105 0.7225348353 0.5000000000
N    0.2777311507 0.8890114240 0.5000000000
N    0.4446200145 0.0556431515 0.5000000000
N    0.4445700342 0.2215568907 0.5000000000
N    0.4440895712 0.3867451590 0.5000000000
N    0.4440895832 0.7240106950 0.5000000000
N    0.4445700350 0.8896793995 0.5000000000
N    0.6111506835 0.0553273823 0.5000000000
N    0.6111506795 0.2224895963 0.5000000000
N    0.6110534088 0.3899523083 0.5000000000
N    0.6114371780 0.5582278040 0.5000000000
N    0.6114371585 0.7198756618 0.5000000000
N    0.6110534080 0.8877673883 0.5000000000
N    0.7775622205 0.0552637313 0.5000000000
N    0.7776530427 0.2221596795 0.5000000000
N    0.7775622223 0.3889647930 0.5000000000
N    0.7774521547 0.5556414432 0.5000000000
N    0.7786011380 0.7226337210 0.5000000000
N    0.7774521400 0.8884769970 0.5000000000
N    0.9440933227 0.0552562593 0.5000000000
N    0.9442558762 0.2221125948 0.5000000000
N    0.9442558870 0.3888095753 0.5000000000
N    0.9440933280 0.5555033532 0.5000000000
N    0.9445151402 0.7222228445 0.5000000000
N    0.9445151273 0.8889585863 0.5000000000
C    0.5584636870 0.6125650192 0.5000000000
C    0.4485276877 0.5575969895 0.5000000000
