&control
 calculation='scf',
 outdir='./',
 prefix="BN",
 verbosity='high',
 wf_collect=.true.,
 etot_conv_thr=1d-5,
 forc_conv_thr=1d-3
 pseudo_dir="~/pseudo-ONCV-proj",
/
&system
 ibrav=0,
 nat=72,
 ntyp=3,
 nbnd=168,
 ecutwfc=55,
 ecutfock=110,
 nspin=2,
 tot_magnetization=0,
 starting_magnetization(1)=1,
 tot_charge=0

!input_dft = 'pbe0'
!exx_fraction = 0.409
/
&electrons
 electron_maxstep=600,
 mixing_beta=0.7,
 conv_thr=1.0D-8,
/
&cell
/
&ions
/
ATOMIC_SPECIES
B  0.0  B_ONCV_PBE-1.0.upf
N  0.0  N_ONCV_PBE-1.0.upf
C  0.0  C_ONCV_PBE-1.0.upf
K_POINTS automatic
1 1 1 0 0 0
CELL_PARAMETERS angstrom
15.04380218  0.          0.        
-7.52188605 13.02832383  0.        
 0.          0.         15.87532077
ATOMIC_POSITIONS crystal
B    0.0553313295 0.1108533915 0.5000000000
B    0.0554265975 0.2776222010 0.5000000000
B    0.0554266066 0.4444707532 0.5000000000
B    0.0553313413 0.6111442926 0.5000000000
B    0.0555963694 0.7778066534 0.5000000000
B    0.0555963537 0.9444560567 0.5000000000
B    0.2220745495 0.1108141095 0.5000000000
B    0.2217352369 0.2772355054 0.5000000000
B    0.2223341760 0.4445002497 0.5000000000
B    0.2217352410 0.6111660721 0.5000000000
B    0.2220745502 0.7779267657 0.5000000000
B    0.2222112050 0.9444387663 0.5000000000
B    0.3888552859 0.1108254472 0.5000000000
B    0.3887633008 0.2766537968 0.5000000000
B    0.3883526800 0.4421445229 0.5000000000
B    0.3883526722 0.6128745053 0.5000000000
B    0.3887633008 0.7787758379 0.5000000000
B    0.3888552811 0.9446961636 0.5000000000
B    0.5555636282 0.1111149852 0.5000000000
B    0.5554101176 0.2779758592 0.5000000000
B    0.5547149607 0.4447578898 0.5000000000
B    0.5547149700 0.7766234195 0.5000000000
B    0.5554101148 0.9441005977 0.5000000000
B    0.7221473498 0.1110139858 0.5000000000
B    0.7221473507 0.2777997355 0.5000000000
B    0.7222675160 0.4446260727 0.5000000000
B    0.7230485317 0.6117994800 0.5000000000
B    0.7230485085 0.7779153964 0.5000000000
B    0.7222675063 0.9443078020 0.5000000000
B    0.8887861346 0.1110232754 0.5000000000
B    0.8888267211 0.2777465425 0.5000000000
B    0.8887861492 0.4444292154 0.5000000000
B    0.8888082655 0.6111416622 0.5000000000
B    0.8895618226 0.7781140791 0.5000000000
B    0.8888082448 0.9443329399 0.5000000000
N    0.1109015368 0.0553667122 0.5000000000
N    0.1105702759 0.2217132598 0.5000000000
N    0.1110644528 0.3888653662 0.5000000000
N    0.1105702939 0.5555233002 0.5000000000
N    0.1109015450 0.7222011249 0.5000000000
N    0.1110072523 0.8888367852 0.5000000000
N    0.2777221736 0.0553739914 0.5000000000
N    0.2774397963 0.2215741169 0.5000000000
N    0.2771261919 0.3879036856 0.5000000000
N    0.2771261977 0.5558887726 0.5000000000
N    0.2774398141 0.7225319519 0.5000000000
N    0.2777221693 0.8890144608 0.5000000000
N    0.4446294877 0.0556478871 0.5000000000
N    0.4445624940 0.2215201277 0.5000000000
N    0.4439923007 0.3866376590 0.5000000000
N    0.4439923166 0.7240209206 0.5000000000
N    0.4445624966 0.8897086191 0.5000000000
N    0.6111482839 0.0553229748 0.5000000000
N    0.6111482799 0.2224916025 0.5000000000
N    0.6110465146 0.3899715153 0.5000000000
N    0.6116531420 0.5582532904 0.5000000000
N    0.6116531261 0.7200661412 0.5000000000
N    0.6110465152 0.8877412873 0.5000000000
N    0.7775617913 0.0552852270 0.5000000000
N    0.7776471541 0.2221567351 0.5000000000
N    0.7775617917 0.3889428682 0.5000000000
N    0.7775665685 0.5556023238 0.5000000000
N    0.7786680180 0.7226671626 0.5000000000
N    0.7775665560 0.8886305378 0.5000000000
N    0.9441137494 0.0552935719 0.5000000000
N    0.9442362304 0.2221126973 0.5000000000
N    0.9442362406 0.3887898247 0.5000000000
N    0.9441137536 0.5554864650 0.5000000000
N    0.9445372465 0.7222256497 0.5000000000
N    0.9445372335 0.8889778884 0.5000000000
C    0.5592647566 0.6129655566 0.5000000000
C    0.4482044871 0.5574353875 0.5000000000
