&control
 calculation='relax',
 prefix="BN",
 verbosity='high',
 wf_collect=.true.,
/
&system
 ibrav=4,
 A=17.5869960785,
 C=15.0000000000,
 nat=98,
 ntyp=2,
 nbnd=220,
 ecutwfc=50,
 nspin=2,
 tot_magnetization=0,
/
&electrons
 conv_thr=1.0D-8,
 mixing_beta=0.7,
/
&ions
/
ATOMIC_SPECIES
B  0.0 B_ONCV_PBE-1.0.upf
N  0.0 N_ONCV_PBE-1.0.upf
K_POINTS automatic
3 3 1 0 0 0
! CELL_PARAMETERS angstrom
! 17.5869960785         0.0000000000         0.0000000000
! -8.7934979185        15.2307898548         0.0000000000
!  0.0000000000         0.0000000000        15.0000000000
ATOMIC_POSITIONS (crystal)
B 0.047618994 0.095238140 0.500000000
B 0.047618998 0.238095282 0.500000000
B 0.047618986 0.380952433 0.500000000
B 0.047618998 0.523809552 0.500000000
B 0.047619003 0.666666765 0.500000000
B 0.047618959 0.809523853 0.500000000
B 0.047618974 0.952381004 0.500000000
B 0.190476148 0.095238140 0.500000000
B 0.190476145 0.238095282 0.500000000
B 0.190476132 0.380952433 0.500000000
B 0.190476145 0.523809552 0.500000000
B 0.190476164 0.666666765 0.500000000
B 0.190476120 0.809523853 0.500000000
B 0.190476148 0.952381004 0.500000000
B 0.333333281 0.095238140 0.500000000
B 0.333333278 0.238095282 0.500000000
B 0.333333266 0.380952433 0.500000000
B 0.333333278 0.523809552 0.500000000
B 0.333333297 0.666666765 0.500000000
B 0.333333253 0.809523853 0.500000000
B 0.333333267 0.952381004 0.500000000
B 0.476190401 0.095238140 0.500000000
B 0.476190411 0.238095282 0.500000000
B 0.476190399 0.380952433 0.500000000
B 0.476190398 0.523809552 0.500000000
B 0.476190416 0.666666765 0.500000000
B 0.476190372 0.809523853 0.500000000
B 0.476190387 0.952381004 0.500000000
B 0.619047547 0.095238140 0.500000000
B 0.619047585 0.238095282 0.500000000
B 0.619047573 0.380952433 0.500000000
B 0.619047571 0.523809552 0.500000000
B 0.619047590 0.666666765 0.500000000
B 0.619047546 0.809523853 0.500000000
B 0.619047561 0.952381004 0.500000000
B 0.761904667 0.095238140 0.500000000
B 0.761904705 0.238095282 0.500000000
B 0.761904692 0.380952433 0.500000000
B 0.761904664 0.523809552 0.500000000
B 0.761904710 0.666666765 0.500000000
B 0.761904666 0.809523853 0.500000000
B 0.761904680 0.952381004 0.500000000
B 0.904761841 0.095238140 0.500000000
B 0.904761879 0.238095282 0.500000000
B 0.904761866 0.380952433 0.500000000
B 0.904761838 0.523809552 0.500000000
B 0.904761857 0.666666765 0.500000000
B 0.904761813 0.809523853 0.500000000
B 0.904761854 0.952381004 0.500000000
N 0.095238139 0.047618995 0.500000000
N 0.095238144 0.190476154 0.500000000
N 0.095238143 0.333333289 0.500000000
N 0.095238136 0.476190408 0.500000000
N 0.095238139 0.619047590 0.500000000
N 0.095238153 0.761904740 0.500000000
N 0.095238109 0.904761828 0.500000000
N 0.238095285 0.047618995 0.500000000
N 0.238095277 0.190476154 0.500000000
N 0.238095283 0.333333289 0.500000000
N 0.238095282 0.476190408 0.500000000
N 0.238095285 0.619047590 0.500000000
N 0.238095300 0.761904740 0.500000000
N 0.238095256 0.904761828 0.500000000
N 0.380952459 0.047618995 0.500000000
N 0.380952451 0.190476154 0.500000000
N 0.380952457 0.333333289 0.500000000
N 0.380952456 0.476190408 0.500000000
N 0.380952459 0.619047590 0.500000000
N 0.380952474 0.761904740 0.500000000
N 0.380952430 0.904761828 0.500000000
N 0.523809552 0.047618995 0.500000000
N 0.523809543 0.190476154 0.500000000
N 0.523809550 0.333333289 0.500000000
N 0.523809549 0.476190408 0.500000000
N 0.523809552 0.619047590 0.500000000
N 0.523809566 0.761904740 0.500000000
N 0.523809522 0.904761828 0.500000000
N 0.666666726 0.047618995 0.500000000
N 0.666666717 0.190476154 0.500000000
N 0.666666751 0.333333289 0.500000000
N 0.666666722 0.476190408 0.500000000
N 0.666666726 0.619047590 0.500000000
N 0.666666740 0.761904740 0.500000000
N 0.666666696 0.904761828 0.500000000
N 0.809523900 0.047618995 0.500000000
N 0.809523891 0.190476154 0.500000000
N 0.809523925 0.333333289 0.500000000
N 0.809523896 0.476190408 0.500000000
N 0.809523899 0.619047590 0.500000000
N 0.809523914 0.761904740 0.500000000
N 0.809523870 0.904761828 0.500000000
N 0.952381019 0.047618995 0.500000000
N 0.952381010 0.190476154 0.500000000
N 0.952380990 0.333333289 0.500000000
N 0.952381016 0.476190408 0.500000000
N 0.952381019 0.619047590 0.500000000
N 0.952381061 0.761904740 0.500000000
N 0.952381017 0.904761828 0.500000000
