&control
 calculation='scf',
 outdir='./',
 prefix="BN",
 verbosity='high',
 wf_collect=.true.,
 etot_conv_thr=1d-5,
 forc_conv_thr=1d-3
 pseudo_dir="~/pseudo-ONCV-proj",
/
&system
 ibrav=0,
 nat=72,
 ntyp=3,
 nbnd=168,
 ecutwfc=55,
 ecutfock=110,
 nspin=2,
 tot_magnetization=0,
 starting_magnetization(1)=1,
 tot_charge=0
 occupations='from_input'
!input_dft = 'pbe0'
!exx_fraction = 0.409
/
&electrons
 electron_maxstep=600,
 mixing_beta=0.7,
 conv_thr=1.0D-8,
/
&cell
/
&ions
/
ATOMIC_SPECIES
B  0.0  B_ONCV_PBE-1.0.upf
N  0.0  N_ONCV_PBE-1.0.upf
C  0.0  C_ONCV_PBE-1.0.upf
K_POINTS automatic
1 1 1 0 0 0
CELL_PARAMETERS angstrom
15.04380218  0.          0.        
-7.52188605 13.02832383  0.        
 0.          0.         15.87532077
ATOMIC_POSITIONS crystal
B    0.0553293375 0.1109246164 0.5000000000
B    0.0556367344 0.2778522499 0.5000000000
B    0.0556367442 0.4444508355 0.5000000000
B    0.0553293461 0.6110710702 0.5000000000
B    0.0556431286 0.7778016998 0.5000000000
B    0.0556431169 0.9445077799 0.5000000000
B    0.2221047966 0.1109039727 0.5000000000
B    0.2220419713 0.2775787270 0.5000000000
B    0.2229618871 0.4448141009 0.5000000000
B    0.2220419770 0.6111295768 0.5000000000
B    0.2221048085 0.7778671449 0.5000000000
B    0.2222062130 0.9444362742 0.5000000000
B    0.3888831874 0.1108070975 0.5000000000
B    0.3886988968 0.2765374247 0.5000000000
B    0.3892656391 0.4427389533 0.5000000000
B    0.3892656345 0.6131930389 0.5000000000
B    0.3886988976 0.7788278195 0.5000000000
B    0.3888831867 0.9447424300 0.5000000000
B    0.5556421914 0.1111542692 0.5000000000
B    0.5555640464 0.2781439424 0.5000000000
B    0.5545638839 0.4447443026 0.5000000000
B    0.5545638820 0.7764859235 0.5000000000
B    0.5555640468 0.9440864489 0.5000000000
B    0.7221812186 0.1110136617 0.5000000000
B    0.7221812170 0.2778339187 0.5000000000
B    0.7220229880 0.4445821799 0.5000000000
B    0.7225495029 0.6120471911 0.5000000000
B    0.7225494756 0.7771686348 0.5000000000
B    0.7220229839 0.9441071468 0.5000000000
B    0.8887628313 0.1110063690 0.5000000000
B    0.8888426747 0.2777545177 0.5000000000
B    0.8887628412 0.4444228058 0.5000000000
B    0.8885989135 0.6111425463 0.5000000000
B    0.8895433513 0.7781048487 0.5000000000
B    0.8885988985 0.9441226983 0.5000000000
N    0.1109462384 0.0553925234 0.5000000000
N    0.1107748183 0.2218628886 0.5000000000
N    0.1113352984 0.3890007925 0.5000000000
N    0.1107748354 0.5555782314 0.5000000000
N    0.1109462481 0.7222200201 0.5000000000
N    0.1110415762 0.8888539412 0.5000000000
N    0.2777581023 0.0554220609 0.5000000000
N    0.2776057859 0.2217285801 0.5000000000
N    0.2776958223 0.3882162872 0.5000000000
N    0.2776958249 0.5561458062 0.5000000000
N    0.2776057997 0.7225434855 0.5000000000
N    0.2777580949 0.8890023136 0.5000000000
N    0.4445915949 0.0556289447 0.5000000000
N    0.4445926548 0.2216671797 0.5000000000
N    0.4443813830 0.3870676590 0.5000000000
N    0.4443813830 0.7239800182 0.5000000000
N    0.4445926502 0.8895917407 0.5000000000
N    0.6111578823 0.0553406045 0.5000000000
N    0.6111578783 0.2224835776 0.5000000000
N    0.6110740914 0.3898946872 0.5000000000
N    0.6107892860 0.5581513448 0.5000000000
N    0.6107892557 0.7193042236 0.5000000000
N    0.6110740864 0.8878456913 0.5000000000
N    0.7775635081 0.0551992439 0.5000000000
N    0.7776707086 0.2221685127 0.5000000000
N    0.7775635141 0.3890305674 0.5000000000
N    0.7771089133 0.5557588014 0.5000000000
N    0.7784004980 0.7225333962 0.5000000000
N    0.7771088920 0.8880163746 0.5000000000
N    0.9440320429 0.0551443215 0.5000000000
N    0.9443148136 0.2221122870 0.5000000000
N    0.9443148262 0.3888688270 0.5000000000
N    0.9440320512 0.5555540179 0.5000000000
N    0.9444488216 0.7222144289 0.5000000000
N    0.9444488087 0.8889006796 0.5000000000
C    0.5560604782 0.6113634071 0.5000000000
C    0.4494972896 0.5580817955 0.5000000000
OCCUPATIONS
     1.0000   1.0000   1.0000   1.0000   1.0000   1.0000   1.0000   1.0000
     1.0000   1.0000   1.0000   1.0000   1.0000   1.0000   1.0000   1.0000
     1.0000   1.0000   1.0000   1.0000   1.0000   1.0000   1.0000   1.0000
     1.0000   1.0000   1.0000   1.0000   1.0000   1.0000   1.0000   1.0000
     1.0000   1.0000   1.0000   1.0000   1.0000   1.0000   1.0000   1.0000
     1.0000   1.0000   1.0000   1.0000   1.0000   1.0000   1.0000   1.0000
     1.0000   1.0000   1.0000   1.0000   1.0000   1.0000   1.0000   1.0000
     1.0000   1.0000   1.0000   1.0000   1.0000   1.0000   1.0000   1.0000
     1.0000   1.0000   1.0000   1.0000   1.0000   1.0000   1.0000   1.0000
     1.0000   1.0000   1.0000   1.0000   1.0000   1.0000   1.0000   1.0000
     1.0000   1.0000   1.0000   1.0000   1.0000   1.0000   1.0000   1.0000
     1.0000   1.0000   1.0000   1.0000   1.0000   1.0000   1.0000   1.0000
     1.0000   1.0000   1.0000   1.0000   1.0000   1.0000   1.0000   1.0000
     1.0000   1.0000   1.0000   1.0000   1.0000   1.0000   1.0000   1.0000
     1.0000   1.0000   1.0000   1.0000   1.0000   1.0000   1.0000   1.0000
     1.0000   1.0000   1.0000   1.0000   1.0000   1.0000   1.0000   1.0000
     1.0000   1.0000   1.0000   1.0000   1.0000   1.0000   1.0000   1.0000
     1.0000   1.0000   1.0000   1.0000   1.0000   1.0000   1.0000   0.0000
     1.0000   0.0000   0.0000   0.0000   0.0000   0.0000   0.0000   0.0000
     0.0000   0.0000   0.0000   0.0000   0.0000   0.0000   0.0000   0.0000
     0.0000   0.0000   0.0000   0.0000   0.0000   0.0000   0.0000   0.0000
     1.0000   1.0000   1.0000   1.0000   1.0000   1.0000   1.0000   1.0000
     1.0000   1.0000   1.0000   1.0000   1.0000   1.0000   1.0000   1.0000
     1.0000   1.0000   1.0000   1.0000   1.0000   1.0000   1.0000   1.0000
     1.0000   1.0000   1.0000   1.0000   1.0000   1.0000   1.0000   1.0000
     1.0000   1.0000   1.0000   1.0000   1.0000   1.0000   1.0000   1.0000
     1.0000   1.0000   1.0000   1.0000   1.0000   1.0000   1.0000   1.0000
     1.0000   1.0000   1.0000   1.0000   1.0000   1.0000   1.0000   1.0000
     1.0000   1.0000   1.0000   1.0000   1.0000   1.0000   1.0000   1.0000
     1.0000   1.0000   1.0000   1.0000   1.0000   1.0000   1.0000   1.0000
     1.0000   1.0000   1.0000   1.0000   1.0000   1.0000   1.0000   1.0000
     1.0000   1.0000   1.0000   1.0000   1.0000   1.0000   1.0000   1.0000
     1.0000   1.0000   1.0000   1.0000   1.0000   1.0000   1.0000   1.0000
     1.0000   1.0000   1.0000   1.0000   1.0000   1.0000   1.0000   1.0000
     1.0000   1.0000   1.0000   1.0000   1.0000   1.0000   1.0000   1.0000
     1.0000   1.0000   1.0000   1.0000   1.0000   1.0000   1.0000   1.0000
     1.0000   1.0000   1.0000   1.0000   1.0000   1.0000   1.0000   1.0000
     1.0000   1.0000   1.0000   1.0000   1.0000   1.0000   1.0000   1.0000
     1.0000   1.0000   1.0000   1.0000   1.0000   1.0000   1.0000   1.0000
     0.0000   0.0000   0.0000   0.0000   0.0000   0.0000   0.0000   0.0000
     0.0000   0.0000   0.0000   0.0000   0.0000   0.0000   0.0000   0.0000
     0.0000   0.0000   0.0000   0.0000   0.0000   0.0000   0.0000   0.0000

