&control
 calculation='scf',
 outdir='./',
 prefix="BN",
 verbosity='high',
 wf_collect=.true.,
 etot_conv_thr=1d-5,
 forc_conv_thr=1d-3
 pseudo_dir="~/pseudo-ONCV-proj",
/
&system
 ibrav=0,
 nat=72,
 ntyp=3,
 nbnd=168,
 ecutwfc=55,
 ecutfock=110,
 nspin=2,
 tot_magnetization=0,
 starting_magnetization(1)=1,
 tot_charge=0
 occupations='from_input'
!input_dft = 'pbe0'
!exx_fraction = 0.409
/
&electrons
 electron_maxstep=600,
 mixing_beta=0.7,
 conv_thr=1.0D-8,
/
&cell
/
&ions
/
ATOMIC_SPECIES
B  0.0  B_ONCV_PBE-1.0.upf
N  0.0  N_ONCV_PBE-1.0.upf
C  0.0  C_ONCV_PBE-1.0.upf
K_POINTS automatic
1 1 1 0 0 0
CELL_PARAMETERS angstrom
15.04380218  0.          0.        
-7.52188605 13.02832383  0.        
 0.          0.         15.87532077
ATOMIC_POSITIONS crystal
B    0.0553312050 0.1108578431 0.5000000000
B    0.0554397311 0.2776365791 0.5000000000
B    0.0554397402 0.4444695083 0.5000000000
B    0.0553312166 0.6111397162 0.5000000000
B    0.0555992919 0.7778063438 0.5000000000
B    0.0555992764 0.9444592894 0.5000000000
B    0.2220764399 0.1108197259 0.5000000000
B    0.2217544078 0.2772569567 0.5000000000
B    0.2223734079 0.4445198654 0.5000000000
B    0.2217544120 0.6111637911 0.5000000000
B    0.2220764413 0.7779230394 0.5000000000
B    0.2222108930 0.9444386105 0.5000000000
B    0.3888570297 0.1108243003 0.5000000000
B    0.3887592755 0.2766465235 0.5000000000
B    0.3884097399 0.4421816748 0.5000000000
B    0.3884097323 0.6128944137 0.5000000000
B    0.3887592756 0.7787790867 0.5000000000
B    0.3888570252 0.9446990553 0.5000000000
B    0.5555685384 0.1111174405 0.5000000000
B    0.5554197381 0.2779863644 0.5000000000
B    0.5547055184 0.4447570406 0.5000000000
B    0.5547055270 0.7766148260 0.5000000000
B    0.5554197355 0.9440997134 0.5000000000
B    0.7221494666 0.1110139655 0.5000000000
B    0.7221494673 0.2778018719 0.5000000000
B    0.7222522330 0.4446233294 0.5000000000
B    0.7230173424 0.6118149619 0.5000000000
B    0.7230173189 0.7778687238 0.5000000000
B    0.7222522237 0.9442952611 0.5000000000
B    0.8887846781 0.1110222187 0.5000000000
B    0.8888277182 0.2777470409 0.5000000000
B    0.8887846925 0.4444288148 0.5000000000
B    0.8887951810 0.6111417175 0.5000000000
B    0.8895606681 0.7781135022 0.5000000000
B    0.8887951607 0.9443197998 0.5000000000
N    0.1109043307 0.0553683254 0.5000000000
N    0.1105830598 0.2217226116 0.5000000000
N    0.1110813807 0.3888738303 0.5000000000
N    0.1105830777 0.5555267334 0.5000000000
N    0.1109043389 0.7222023059 0.5000000000
N    0.1110093975 0.8888378575 0.5000000000
N    0.2777244191 0.0553769957 0.5000000000
N    0.2774501707 0.2215837709 0.5000000000
N    0.2771617938 0.3879232232 0.5000000000
N    0.2771617994 0.5559048372 0.5000000000
N    0.2774501882 0.7225326727 0.5000000000
N    0.2777244147 0.8890137016 0.5000000000
N    0.4446271194 0.0556467032 0.5000000000
N    0.4445643791 0.2215293185 0.5000000000
N    0.4440166183 0.3866645340 0.5000000000
N    0.4440166333 0.7240183642 0.5000000000
N    0.4445643812 0.8897013142 0.5000000000
N    0.6111488838 0.0553240767 0.5000000000
N    0.6111488798 0.2224911009 0.5000000000
N    0.6110482381 0.3899667135 0.5000000000
N    0.6115991510 0.5582469188 0.5000000000
N    0.6115991342 0.7200185213 0.5000000000
N    0.6110482384 0.8877478125 0.5000000000
N    0.7775618986 0.0552798531 0.5000000000
N    0.7776486263 0.2221574712 0.5000000000
N    0.7775618993 0.3889483494 0.5000000000
N    0.7775379651 0.5556121037 0.5000000000
N    0.7786512980 0.7226588022 0.5000000000
N    0.7775379520 0.8885921526 0.5000000000
N    0.9441086427 0.0552842437 0.5000000000
N    0.9442411419 0.2221126717 0.5000000000
N    0.9442411522 0.3887947623 0.5000000000
N    0.9441086472 0.5554906871 0.5000000000
N    0.9445317199 0.7222249484 0.5000000000
N    0.9445317069 0.8889730629 0.5000000000
C    0.5590644892 0.6128654223 0.5000000000
C    0.4482852873 0.5574757880 0.5000000000
OCCUPATIONS
     1.0000   1.0000   1.0000   1.0000   1.0000   1.0000   1.0000   1.0000
     1.0000   1.0000   1.0000   1.0000   1.0000   1.0000   1.0000   1.0000
     1.0000   1.0000   1.0000   1.0000   1.0000   1.0000   1.0000   1.0000
     1.0000   1.0000   1.0000   1.0000   1.0000   1.0000   1.0000   1.0000
     1.0000   1.0000   1.0000   1.0000   1.0000   1.0000   1.0000   1.0000
     1.0000   1.0000   1.0000   1.0000   1.0000   1.0000   1.0000   1.0000
     1.0000   1.0000   1.0000   1.0000   1.0000   1.0000   1.0000   1.0000
     1.0000   1.0000   1.0000   1.0000   1.0000   1.0000   1.0000   1.0000
     1.0000   1.0000   1.0000   1.0000   1.0000   1.0000   1.0000   1.0000
     1.0000   1.0000   1.0000   1.0000   1.0000   1.0000   1.0000   1.0000
     1.0000   1.0000   1.0000   1.0000   1.0000   1.0000   1.0000   1.0000
     1.0000   1.0000   1.0000   1.0000   1.0000   1.0000   1.0000   1.0000
     1.0000   1.0000   1.0000   1.0000   1.0000   1.0000   1.0000   1.0000
     1.0000   1.0000   1.0000   1.0000   1.0000   1.0000   1.0000   1.0000
     1.0000   1.0000   1.0000   1.0000   1.0000   1.0000   1.0000   1.0000
     1.0000   1.0000   1.0000   1.0000   1.0000   1.0000   1.0000   1.0000
     1.0000   1.0000   1.0000   1.0000   1.0000   1.0000   1.0000   1.0000
     1.0000   1.0000   1.0000   1.0000   1.0000   1.0000   1.0000   0.0000
     1.0000   0.0000   0.0000   0.0000   0.0000   0.0000   0.0000   0.0000
     0.0000   0.0000   0.0000   0.0000   0.0000   0.0000   0.0000   0.0000
     0.0000   0.0000   0.0000   0.0000   0.0000   0.0000   0.0000   0.0000
     1.0000   1.0000   1.0000   1.0000   1.0000   1.0000   1.0000   1.0000
     1.0000   1.0000   1.0000   1.0000   1.0000   1.0000   1.0000   1.0000
     1.0000   1.0000   1.0000   1.0000   1.0000   1.0000   1.0000   1.0000
     1.0000   1.0000   1.0000   1.0000   1.0000   1.0000   1.0000   1.0000
     1.0000   1.0000   1.0000   1.0000   1.0000   1.0000   1.0000   1.0000
     1.0000   1.0000   1.0000   1.0000   1.0000   1.0000   1.0000   1.0000
     1.0000   1.0000   1.0000   1.0000   1.0000   1.0000   1.0000   1.0000
     1.0000   1.0000   1.0000   1.0000   1.0000   1.0000   1.0000   1.0000
     1.0000   1.0000   1.0000   1.0000   1.0000   1.0000   1.0000   1.0000
     1.0000   1.0000   1.0000   1.0000   1.0000   1.0000   1.0000   1.0000
     1.0000   1.0000   1.0000   1.0000   1.0000   1.0000   1.0000   1.0000
     1.0000   1.0000   1.0000   1.0000   1.0000   1.0000   1.0000   1.0000
     1.0000   1.0000   1.0000   1.0000   1.0000   1.0000   1.0000   1.0000
     1.0000   1.0000   1.0000   1.0000   1.0000   1.0000   1.0000   1.0000
     1.0000   1.0000   1.0000   1.0000   1.0000   1.0000   1.0000   1.0000
     1.0000   1.0000   1.0000   1.0000   1.0000   1.0000   1.0000   1.0000
     1.0000   1.0000   1.0000   1.0000   1.0000   1.0000   1.0000   1.0000
     1.0000   1.0000   1.0000   1.0000   1.0000   1.0000   1.0000   1.0000
     0.0000   0.0000   0.0000   0.0000   0.0000   0.0000   0.0000   0.0000
     0.0000   0.0000   0.0000   0.0000   0.0000   0.0000   0.0000   0.0000
     0.0000   0.0000   0.0000   0.0000   0.0000   0.0000   0.0000   0.0000

