&control
 calculation='relax',
 outdir='./temp',
 prefix="BN",
 verbosity='high',
 wf_collect=.true.,
 etot_conv_thr=1d-5,
 forc_conv_thr=1d-3,
 nstep=1000,
 pseudo_dir="~/pseudo-ONCV-proj",
 !restart_mode="restart",
 !max_seconds=28500
/
&system
 ibrav=0,
 nat=72,
 ntyp=3,
 nbnd=168,
 ecutwfc=55,
 ecutfock=110,
 nspin=2,
 tot_magnetization=0,
 starting_magnetization(1)=1,
 tot_charge=0
/
&electrons
 electron_maxstep=600,
 mixing_beta=0.7,
 conv_thr=1.0D-8,
/
&cell
/
&ions
/
ATOMIC_SPECIES
B  0.0  B_ONCV_PBE-1.0.upf
N  0.0  N_ONCV_PBE-1.0.upf
C  0.0  C_ONCV_PBE-1.0.upf
K_POINTS automatic
1 1 1 0 0 0
CELL_PARAMETERS angstrom
15.04380218  0.          0.        
-7.52188605 13.02832383  0.        
 0.          0.         15.87532077
ATOMIC_POSITIONS crystal
B    0.055555002         0.111111003         0.500000000
B    0.055554996         0.277777990         0.500000000
B    0.055555010         0.444444010         0.500000000
B    0.055555000         0.611110980         0.500000000
B    0.055554994         0.777778023         0.500000000
B    0.055554995         0.944443970         0.500000000
B    0.222222009         0.111111003         0.500000000
B    0.222222008         0.277777990         0.500000000
B    0.222222018         0.444444010         0.500000000
B    0.222222012         0.611110980         0.500000000
B    0.222222014         0.777778023         0.500000000
B    0.222221999         0.944443970         0.500000000
B    0.388888017         0.111111003         0.500000000
B    0.388888000         0.277777990         0.500000000
B    0.388888006         0.444444010         0.500000000
B    0.388888003         0.611110980         0.500000000
B    0.388888005         0.777778023         0.500000000
B    0.388887991         0.944443970         0.500000000
B    0.555554989         0.111111003         0.500000000
B    0.555554973         0.277777990         0.500000000
B    0.555554978         0.444444010         0.500000000
B    0.555554979         0.777778023         0.500000000
B    0.555554963         0.944443970         0.500000000
B    0.722221993         0.111111003         0.500000000
B    0.722221945         0.277777990         0.500000000
B    0.722221982         0.444444010         0.500000000
B    0.722221988         0.611110980         0.500000000
B    0.722221967         0.777778023         0.500000000
B    0.722221967         0.944443970         0.500000000
B    0.888888049         0.111111003         0.500000000
B    0.888888000         0.277777990         0.500000000
B    0.888888037         0.444444010         0.500000000
B    0.888888043         0.611110980         0.500000000
B    0.888888022         0.777778023         0.500000000
B    0.888888022         0.944443970         0.500000000
N    0.111111007         0.055554999         0.500000000
N    0.111111009         0.222222005         0.500000000
N    0.111111002         0.388887989         0.500000000
N    0.111111018         0.555554995         0.500000000
N    0.111110990         0.722221928         0.500000000
N    0.111111032         0.888888021         0.500000000
N    0.277777987         0.055554999         0.500000000
N    0.277777995         0.222222005         0.500000000
N    0.277777990         0.388887989         0.500000000
N    0.277778003         0.555554995         0.500000000
N    0.277777978         0.722221928         0.500000000
N    0.277778004         0.888888021         0.500000000
N    0.444444026         0.055554999         0.500000000
N    0.444444019         0.222222005         0.500000000
N    0.444444006         0.388887989         0.500000000
N    0.444444001         0.722221928         0.500000000
N    0.444444035         0.888888021         0.500000000
N    0.611110967         0.055554999         0.500000000
N    0.611110959         0.222222005         0.500000000
N    0.611110947         0.388887989         0.500000000
N    0.611110971         0.555554995         0.500000000
N    0.611110942         0.722221928         0.500000000
N    0.611110968         0.888888021         0.500000000
N    0.777778034         0.055554999         0.500000000
N    0.777778058         0.222222005         0.500000000
N    0.777778014         0.388887989         0.500000000
N    0.777778038         0.555554995         0.500000000
N    0.777778025         0.722221928         0.500000000
N    0.777778036         0.888888021         0.500000000
N    0.944444026         0.055554999         0.500000000
N    0.944444050         0.222222005         0.500000000
N    0.944444006         0.388887989         0.500000000
N    0.944444030         0.555554995         0.500000000
N    0.944444017         0.722221928         0.500000000
N    0.944444027         0.888888021         0.500000000
C    0.555554984         0.611110980         0.500000000
C    0.444444030         0.555554995         0.500000000
