&control
 calculation='scf',
 outdir='./',
 prefix="BN",
 verbosity='high',
 wf_collect=.true.,
 etot_conv_thr=1d-5,
 forc_conv_thr=1d-3
 pseudo_dir="~/pseudo-ONCV-proj",
/
&system
 ibrav=0,
 nat=72,
 ntyp=3,
 nbnd=168,
 ecutwfc=55,
 ecutfock=110,
 nspin=2,
 tot_magnetization=0,
 starting_magnetization(1)=1,
 tot_charge=0

!input_dft = 'pbe0'
!exx_fraction = 0.409
/
&electrons
 electron_maxstep=600,
 mixing_beta=0.7,
 conv_thr=1.0D-8,
/
&cell
/
&ions
/
ATOMIC_SPECIES
B  0.0  B_ONCV_PBE-1.0.upf
N  0.0  N_ONCV_PBE-1.0.upf
C  0.0  C_ONCV_PBE-1.0.upf
K_POINTS automatic
1 1 1 0 0 0
CELL_PARAMETERS angstrom
15.04380218  0.          0.        
-7.52188605 13.02832383  0.        
 0.          0.         15.87532077
ATOMIC_POSITIONS crystal
B    0.0553314540 0.1108489400 0.5000000000
B    0.0554134640 0.2776078230 0.5000000000
B    0.0554134730 0.4444719980 0.5000000000
B    0.0553314660 0.6111488690 0.5000000000
B    0.0555934470 0.7778069630 0.5000000000
B    0.0555934310 0.9444528240 0.5000000000
B    0.2220726590 0.1108084930 0.5000000000
B    0.2217160660 0.2772140540 0.5000000000
B    0.2222949440 0.4444806340 0.5000000000
B    0.2217160700 0.6111683530 0.5000000000
B    0.2220726590 0.7779304920 0.5000000000
B    0.2222115170 0.9444389220 0.5000000000
B    0.3888535420 0.1108265940 0.5000000000
B    0.3887673260 0.2766610700 0.5000000000
B    0.3882956200 0.4421073710 0.5000000000
B    0.3882956120 0.6128545970 0.5000000000
B    0.3887673260 0.7787725890 0.5000000000
B    0.3888535370 0.9446932720 0.5000000000
B    0.5555587180 0.1111125300 0.5000000000
B    0.5554004970 0.2779653540 0.5000000000
B    0.5547244030 0.4447587390 0.5000000000
B    0.5547244130 0.7766320130 0.5000000000
B    0.5554004940 0.9441014820 0.5000000000
B    0.7221452330 0.1110140060 0.5000000000
B    0.7221452340 0.2777975990 0.5000000000
B    0.7222827990 0.4446288160 0.5000000000
B    0.7230797210 0.6117839980 0.5000000000
B    0.7230796980 0.7779620690 0.5000000000
B    0.7222827890 0.9443203430 0.5000000000
B    0.8887875910 0.1110243320 0.5000000000
B    0.8888257240 0.2777460440 0.5000000000
B    0.8887876060 0.4444296160 0.5000000000
B    0.8888213500 0.6111416070 0.5000000000
B    0.8895629770 0.7781146560 0.5000000000
B    0.8888213290 0.9443460800 0.5000000000
N    0.1108987430 0.0553650990 0.5000000000
N    0.1105574920 0.2217039080 0.5000000000
N    0.1110475250 0.3888569020 0.5000000000
N    0.1105575100 0.5555198670 0.5000000000
N    0.1108987510 0.7221999440 0.5000000000
N    0.1110051070 0.8888357130 0.5000000000
N    0.2777199280 0.0553709870 0.5000000000
N    0.2774294220 0.2215644630 0.5000000000
N    0.2770905900 0.3878841480 0.5000000000
N    0.2770905960 0.5558727080 0.5000000000
N    0.2774294400 0.7225312310 0.5000000000
N    0.2777199240 0.8890152200 0.5000000000
N    0.4446318560 0.0556490710 0.5000000000
N    0.4445606090 0.2215109370 0.5000000000
N    0.4439679830 0.3866107840 0.5000000000
N    0.4439680000 0.7240234770 0.5000000000
N    0.4445606120 0.8897159240 0.5000000000
N    0.6111476840 0.0553218730 0.5000000000
N    0.6111476800 0.2224921040 0.5000000000
N    0.6110447910 0.3899763170 0.5000000000
N    0.6117071330 0.5582596620 0.5000000000
N    0.6117071180 0.7201137610 0.5000000000
N    0.6110447920 0.8877347620 0.5000000000
N    0.7775616840 0.0552906010 0.5000000000
N    0.7776456820 0.2221559990 0.5000000000
N    0.7775616840 0.3889373870 0.5000000000
N    0.7775951720 0.5555925440 0.5000000000
N    0.7786847380 0.7226755230 0.5000000000
N    0.7775951600 0.8886689230 0.5000000000
N    0.9441188560 0.0553029000 0.5000000000
N    0.9442313190 0.2221127230 0.5000000000
N    0.9442313290 0.3887848870 0.5000000000
N    0.9441188600 0.5554822430 0.5000000000
N    0.9445427730 0.7222263510 0.5000000000
N    0.9445427600 0.8889827140 0.5000000000
C    0.5594650240 0.6130656910 0.5000000000
C    0.4481236870 0.5573949870 0.5000000000
