&control
 calculation='relax',
 outdir='./temp',
 prefix="BN",
 verbosity='high',
 wf_collect=.true.,
 etot_conv_thr=1d-5,
 forc_conv_thr=1d-3,
 nstep=1000,
 pseudo_dir="~/pseudo-ONCV-proj",
/
&system
 ibrav=0,
 nat=72,
 ntyp=3,
 nbnd=168,
 ecutwfc=55,
 ecutfock=110,
 nspin=2,
 tot_magnetization=0,
 starting_magnetization(1)=1,
 tot_charge=0
/
&electrons
 electron_maxstep=600,
 mixing_beta=0.7,
 conv_thr=1.0D-8,
/
&cell
/
&ions
/
ATOMIC_SPECIES
B  0.0  B_ONCV_PBE-1.0.upf
N  0.0  N_ONCV_PBE-1.0.upf
C  0.0  C_ONCV_PBE-1.0.upf
K_POINTS automatic
1 1 1 0 0 0
CELL_PARAMETERS angstrom
15.04380218  0.          0.        
-7.52188605 13.02832383  0.        
 0.          0.         15.87532077
ATOMIC_POSITIONS crystal
B        0.055328964   0.110937971   0.500000000
B        0.055676135   0.277895384   0.500000000
B        0.055676145   0.444447101   0.500000000
B        0.055328972   0.611057341   0.500000000
B        0.055651896   0.777800771   0.500000000
B        0.055651885   0.944517478   0.500000000
B        0.222110468   0.110920822   0.500000000
B        0.222099484   0.277643081   0.500000000
B        0.223079583   0.444872948   0.500000000
B        0.222099490   0.611122734   0.500000000
B        0.222110482   0.777855966   0.500000000
B        0.222205277   0.944435807   0.500000000
B        0.388888419   0.110803657   0.500000000
B        0.388686821   0.276515605   0.500000000
B        0.389436819   0.442850409   0.500000000
B        0.389436815   0.613252764   0.500000000
B        0.388686822   0.778837566   0.500000000
B        0.388888419   0.944751105   0.500000000
B        0.555656922   0.111161635   0.500000000
B        0.555592908   0.278175458   0.500000000
B        0.554535557   0.444741755   0.500000000
B        0.554535553   0.776460143   0.500000000
B        0.555592909   0.944083796   0.500000000
B        0.722187569   0.111013601   0.500000000
B        0.722187567   0.277840328   0.500000000
B        0.721977139   0.444573950   0.500000000
B        0.722455935   0.612093637   0.500000000
B        0.722455907   0.777028617   0.500000000
B        0.721977136   0.944069524   0.500000000
B        0.888758462   0.111003199   0.500000000
B        0.888845666   0.277756013   0.500000000
B        0.888758471   0.444421604   0.500000000
B        0.888559660   0.611142712   0.500000000
B        0.889539888   0.778103118   0.500000000
B        0.888559646   0.944083278   0.500000000
N        0.110954620   0.055397363   0.500000000
N        0.110813170   0.221890944   0.500000000
N        0.111386082   0.389026185   0.500000000
N        0.110813187   0.555588531   0.500000000
N        0.110954630   0.722223563   0.500000000
N        0.111048012   0.888857158   0.500000000
N        0.277764839   0.055431074   0.500000000
N        0.277636909   0.221757542   0.500000000
N        0.277802628   0.388274900   0.500000000
N        0.277802630   0.556194000   0.500000000
N        0.277636922   0.722545648   0.500000000
N        0.277764831   0.889000036   0.500000000
N        0.444584490   0.055625393   0.500000000
N        0.444598310   0.221694752   0.500000000
N        0.444454336   0.387148284   0.500000000
N        0.444454333   0.723972349   0.500000000
N        0.444598304   0.889569826   0.500000000
N        0.611159682   0.055343910   0.500000000
N        0.611159678   0.222482073   0.500000000
N        0.611079262   0.389880282   0.500000000
N        0.610627313   0.558132230   0.500000000
N        0.610627280   0.719161364   0.500000000
N        0.611079256   0.887865267   0.500000000
N        0.777563830   0.055183122   0.500000000
N        0.777675125   0.222170721   0.500000000
N        0.777563837   0.389047011   0.500000000
N        0.777023103   0.555788141   0.500000000
N        0.778350338   0.722508315   0.500000000
N        0.777023080   0.887901219   0.500000000
N        0.944016723   0.055116337   0.500000000
N        0.944329548   0.222112210   0.500000000
N        0.944329561   0.388883640   0.500000000
N        0.944016732   0.555566684   0.500000000
N        0.944432242   0.722212325   0.500000000
N        0.944432229   0.888886203   0.500000000
C        0.555459676   0.611063004   0.500000000
C        0.449739690   0.558202997   0.500000000

