&CONTROL
 calculation = 'scf',
 restart_mode = 'from_scratch',
 pseudo_dir = './',
 tprnfor = .true.,
/
&SYSTEM
 ibrav = 1,
 celldm(1) = 12.D0,
 nat = 4,
 ntyp = 2,
 ecutwfc = 25.0D0 ,
 ecutrho = 160.0D0 ,
 nosym = .true. ,
 occupations = 'smearing' ,
 degauss = 0.005D0 ,
/
&ELECTRONS
 conv_thr = 1.D-8 ,
 mixing_beta = 0.5D0 ,
/
ATOMIC_SPECIES
 H    1.00000  H.US_PBE.RRKJ3.UPF 
 C   12.00000  C.US_PBE.RRKJ3.UPF 
ATOMIC_POSITIONS bohr 
  C      6.000000000    6.000000000    6.000000000    0  0  0 
  C      8.100000000    6.000000000    6.000000000    1  1  1 
  H      4.400000000    6.400000000    6.000000000    1  1  1 
  H      9.600000000    5.600000000    6.000000000    1  1  1 
K_POINTS gamma 

