&control
 calculation='scf',
 pseudo_dir='/sdcc/u/jxuucsc/pseudopotentials/oncv/dojo/nc-sr-04_pbe_standard'
 outdir='./out/',
 wf_collect=.true.,
 prefix='bn',
 verbosity='high',
 etot_conv_thr = 1d-5,
 forc_conv_thr = 1d-3,
/
&system
 ibrav=0,
 nat=71,
 ntyp=2,
 ecutwfc=72,
 occupations = "smearing",
 smearing = "cold",
 degauss = 1d-3,
 nspin = 2,
 starting_magnetization(1) = 1,
 tot_charge=0,
 nbnd = 151,
/
&electrons
 electron_maxstep = 500,
 mixing_beta=0.7,
 conv_thr=1.0D-8,
/
&cell
/
&ions
/
K_POINTS automatic
3 3 1 0 0 0
ATOMIC_SPECIES
B 10.811 B.upf
N 14.0067 N.upf
CELL_PARAMETERS angstrom
15.043730685 0.0 0.0
-7.5218653425 13.02825294090147 0.0
0.0 0.0 15.87531
ATOMIC_POSITIONS crystal
B    0.1125248771 0.0556034910 0.0000000000
B    0.1122145309 0.2210749767 0.0000000000
B    0.1095623214 0.3872802426 0.0000000000
B    0.1073296496 0.5539728720 0.0000000000
B    0.1071717028 0.7204929066 0.0000000000
B    0.1088169124 0.8873145428 0.0000000000
B    0.2795362646 0.0580491543 0.0000000000
B    0.2854164825 0.2290277426 0.0000000000
B    0.2765228133 0.3895399801 0.0000000000
B    0.2734271040 0.5552732026 0.0000000000
B    0.2742656357 0.7220195201 0.0000000000
B    0.2757327410 0.8891043835 0.0000000000
B    0.4443174211 0.0564964463 0.0000000000
B    0.4500211615 0.2286467866 0.0000000000
B    0.4578013008 0.4092697759 0.0000000000
B    0.4385703310 0.5575446710 0.0000000000
B    0.4409014464 0.7227563087 0.0000000000
B    0.4422647886 0.8889287404 0.0000000000
B    0.6105244282 0.0526959765 0.0000000000
B    0.6140861859 0.2183860137 0.0000000000
N    0.6132332850 0.3828586443 0.0000000000
B    0.5868972966 0.5383946304 0.0000000000
B    0.6065483020 0.7196013047 0.0000000000
B    0.6088946904 0.8865923213 0.0000000000
B    0.7771347653 0.0513820521 0.0000000000
B    0.7788668595 0.2173848217 0.0000000000
B    0.7777583756 0.3821181528 0.0000000000
B    0.7675333678 0.5461740785 0.0000000000
B    0.7671417158 0.7107732113 0.0000000000
B    0.7749853648 0.8838800847 0.0000000000
B    0.9439083893 0.0521787776 0.0000000000
B    0.9448123068 0.2190699030 0.0000000000
B    0.9434860255 0.3857150194 0.0000000000
B    0.9397311811 0.5518929671 0.0000000000
B    0.9381495788 0.7166467901 0.0000000000
B    0.9404892790 0.8836262931 0.0000000000
N    0.0557511395 0.1095267529 0.0000000000
N    0.0557769211 0.2758608968 0.0000000000
N    0.0537944975 0.4426015099 0.0000000000
N    0.0511543917 0.6089804582 0.0000000000
N    0.0507878676 0.7749689340 0.0000000000
N    0.0534788535 0.9425669941 0.0000000000
N    0.2259119941 0.1151256538 0.0000000000
N    0.2240250070 0.2787120139 0.0000000000
N    0.2199252679 0.4441308936 0.0000000000
N    0.2181825322 0.6107320979 0.0000000000
N    0.2188399390 0.7774792629 0.0000000000
N    0.2211771326 0.9454287460 0.0000000000
N    0.3917836275 0.1155229868 0.0000000000
N    0.4011391750 0.2913548720 0.0000000000
N    0.3865540820 0.4473021813 0.0000000000
N    0.3838848206 0.6122715602 0.0000000000
N    0.3855727352 0.7781317491 0.0000000000
N    0.3872720449 0.9451284470 0.0000000000
N    0.5554433449 0.1085979696 0.0000000000
N    0.5625421747 0.2769413868 0.0000000000
N    0.5488049023 0.6096011695 0.0000000000
N    0.5520177389 0.7762305685 0.0000000000
N    0.5536317951 0.9423799300 0.0000000000
N    0.7218358307 0.1068990555 0.0000000000
N    0.7238356185 0.2723743692 0.0000000000
N    0.7191829528 0.4336622595 0.0000000000
N    0.7048688979 0.5951037990 0.0000000000
N    0.7173378508 0.7720723150 0.0000000000
N    0.7202958444 0.9403916748 0.0000000000
N    0.8885200273 0.1076810289 0.0000000000
N    0.8893800647 0.2744601005 0.0000000000
N    0.8875542484 0.4407754612 0.0000000000
N    0.8806809371 0.6043971127 0.0000000000
N    0.8810941963 0.7703206436 0.0000000000
N    0.8864890722 0.9403267288 0.0000000000
