&control
 calculation='scf',
 outdir='./',
 prefix="BN",
 verbosity='high',
 wf_collect=.true.,
 etot_conv_thr=1d-5,
 forc_conv_thr=1d-3
 pseudo_dir="~/pseudo-ONCV-proj",
/
&system
 ibrav=0,
 nat=72,
 ntyp=3,
 nbnd=168,
 ecutwfc=55,
 ecutfock=110,
 nspin=2,
 tot_magnetization=0,
 starting_magnetization(1)=1,
 tot_charge=0

!input_dft = 'pbe0'
!exx_fraction = 0.409
/
&electrons
 electron_maxstep=600,
 mixing_beta=0.7,
 conv_thr=1.0D-8,
/
&cell
/
&ions
/
ATOMIC_SPECIES
B  0.0  B_ONCV_PBE-1.0.upf
N  0.0  N_ONCV_PBE-1.0.upf
C  0.0  C_ONCV_PBE-1.0.upf
K_POINTS automatic
1 1 1 0 0 0
CELL_PARAMETERS angstrom
15.04380218  0.          0.        
-7.52188605 13.02832383  0.        
 0.          0.         15.87532077
ATOMIC_POSITIONS crystal
B    0.0553310805 0.1108622946 0.5000000000
B    0.0554528647 0.2776509571 0.5000000000
B    0.0554528738 0.4444682635 0.5000000000
B    0.0553310919 0.6111351398 0.5000000000
B    0.0556022143 0.7778060342 0.5000000000
B    0.0556021991 0.9444625221 0.5000000000
B    0.2220783304 0.1108253423 0.5000000000
B    0.2217735787 0.2772784080 0.5000000000
B    0.2224126399 0.4445394811 0.5000000000
B    0.2217735830 0.6111615102 0.5000000000
B    0.2220783325 0.7779193131 0.5000000000
B    0.2222105810 0.9444384547 0.5000000000
B    0.3888587735 0.1108231535 0.5000000000
B    0.3887552503 0.2766392503 0.5000000000
B    0.3884667998 0.4422188267 0.5000000000
B    0.3884667925 0.6129143220 0.5000000000
B    0.3887552504 0.7787823355 0.5000000000
B    0.3888587693 0.9447019469 0.5000000000
B    0.5555734486 0.1111198957 0.5000000000
B    0.5554293587 0.2779968696 0.5000000000
B    0.5546960761 0.4447561914 0.5000000000
B    0.5546960840 0.7766062325 0.5000000000
B    0.5554293563 0.9440988291 0.5000000000
B    0.7221515834 0.1110139452 0.5000000000
B    0.7221515840 0.2778040084 0.5000000000
B    0.7222369500 0.4446205861 0.5000000000
B    0.7229861531 0.6118304439 0.5000000000
B    0.7229861294 0.7778220512 0.5000000000
B    0.7222369411 0.9442827202 0.5000000000
B    0.8887832217 0.1110211621 0.5000000000
B    0.8888287153 0.2777475394 0.5000000000
B    0.8887832357 0.4444284142 0.5000000000
B    0.8887820965 0.6111417727 0.5000000000
B    0.8895595136 0.7781129253 0.5000000000
B    0.8887820765 0.9443066597 0.5000000000
N    0.1109071245 0.0553699386 0.5000000000
N    0.1105958437 0.2217319634 0.5000000000
N    0.1110983085 0.3888822945 0.5000000000
N    0.1105958615 0.5555301666 0.5000000000
N    0.1109071329 0.7222034869 0.5000000000
N    0.1110115428 0.8888389297 0.5000000000
N    0.2777266647 0.0553800001 0.5000000000
N    0.2774605450 0.2215934248 0.5000000000
N    0.2771973957 0.3879427608 0.5000000000
N    0.2771974011 0.5559209018 0.5000000000
N    0.2774605623 0.7225333936 0.5000000000
N    0.2777266601 0.8890129424 0.5000000000
N    0.4446247511 0.0556455193 0.5000000000
N    0.4445662642 0.2215385093 0.5000000000
N    0.4440409359 0.3866914090 0.5000000000
N    0.4440409499 0.7240158078 0.5000000000
N    0.4445662658 0.8896940093 0.5000000000
N    0.6111494837 0.0553251785 0.5000000000
N    0.6111494797 0.2224905994 0.5000000000
N    0.6110499616 0.3899619118 0.5000000000
N    0.6115451600 0.5582405472 0.5000000000
N    0.6115451423 0.7199709014 0.5000000000
N    0.6110499616 0.8877543378 0.5000000000
N    0.7775620059 0.0552744791 0.5000000000
N    0.7776500984 0.2221582073 0.5000000000
N    0.7775620069 0.3889538306 0.5000000000
N    0.7775093616 0.5556218835 0.5000000000
N    0.7786345780 0.7226504418 0.5000000000
N    0.7775093480 0.8885537674 0.5000000000
N    0.9441035360 0.0552749155 0.5000000000
N    0.9442460534 0.2221126461 0.5000000000
N    0.9442460638 0.3887997000 0.5000000000
N    0.9441035408 0.5554949091 0.5000000000
N    0.9445261933 0.7222242471 0.5000000000
N    0.9445261804 0.8889682373 0.5000000000
C    0.5588642218 0.6127652879 0.5000000000
C    0.4483660875 0.5575161885 0.5000000000
