&control
 calculation='scf',
 outdir='./',
 prefix="BN",
 verbosity='high',
 wf_collect=.true.,
 etot_conv_thr=1d-5,
 forc_conv_thr=1d-3
 pseudo_dir="~/pseudo-ONCV-proj",
/
&system
 ibrav=0,
 nat=72,
 ntyp=3,
 nbnd=168,
 ecutwfc=55,
 ecutfock=110,
 nspin=2,
 tot_magnetization=0,
 starting_magnetization(1)=1,
 tot_charge=0
 occupations='from_input'
!input_dft = 'pbe0'
!exx_fraction = 0.409
/
&electrons
 electron_maxstep=600,
 mixing_beta=0.7,
 conv_thr=1.0D-8,
/
&cell
/
&ions
/
ATOMIC_SPECIES
B  0.0  B_ONCV_PBE-1.0.upf
N  0.0  N_ONCV_PBE-1.0.upf
C  0.0  C_ONCV_PBE-1.0.upf
K_POINTS automatic
1 1 1 0 0 0
CELL_PARAMETERS angstrom
15.04380218  0.          0.        
-7.52188605 13.02832383  0.        
 0.          0.         15.87532077
ATOMIC_POSITIONS crystal
B    0.0553289640 0.1109379710 0.5000000000
B    0.0556761350 0.2778953840 0.5000000000
B    0.0556761450 0.4444471010 0.5000000000
B    0.0553289720 0.6110573410 0.5000000000
B    0.0556518960 0.7778007710 0.5000000000
B    0.0556518850 0.9445174780 0.5000000000
B    0.2221104680 0.1109208220 0.5000000000
B    0.2220994840 0.2776430810 0.5000000000
B    0.2230795830 0.4448729480 0.5000000000
B    0.2220994900 0.6111227340 0.5000000000
B    0.2221104820 0.7778559660 0.5000000000
B    0.2222052770 0.9444358070 0.5000000000
B    0.3888884190 0.1108036570 0.5000000000
B    0.3886868210 0.2765156050 0.5000000000
B    0.3894368190 0.4428504090 0.5000000000
B    0.3894368150 0.6132527640 0.5000000000
B    0.3886868220 0.7788375660 0.5000000000
B    0.3888884190 0.9447511050 0.5000000000
B    0.5556569220 0.1111616350 0.5000000000
B    0.5555929080 0.2781754580 0.5000000000
B    0.5545355570 0.4447417550 0.5000000000
B    0.5545355530 0.7764601430 0.5000000000
B    0.5555929090 0.9440837960 0.5000000000
B    0.7221875690 0.1110136010 0.5000000000
B    0.7221875670 0.2778403280 0.5000000000
B    0.7219771390 0.4445739500 0.5000000000
B    0.7224559350 0.6120936370 0.5000000000
B    0.7224559070 0.7770286170 0.5000000000
B    0.7219771360 0.9440695240 0.5000000000
B    0.8887584620 0.1110031990 0.5000000000
B    0.8888456660 0.2777560130 0.5000000000
B    0.8887584710 0.4444216040 0.5000000000
B    0.8885596600 0.6111427120 0.5000000000
B    0.8895398880 0.7781031180 0.5000000000
B    0.8885596460 0.9440832780 0.5000000000
N    0.1109546200 0.0553973630 0.5000000000
N    0.1108131700 0.2218909440 0.5000000000
N    0.1113860820 0.3890261850 0.5000000000
N    0.1108131870 0.5555885310 0.5000000000
N    0.1109546300 0.7222235630 0.5000000000
N    0.1110480120 0.8888571580 0.5000000000
N    0.2777648390 0.0554310740 0.5000000000
N    0.2776369090 0.2217575420 0.5000000000
N    0.2778026280 0.3882749000 0.5000000000
N    0.2778026300 0.5561940000 0.5000000000
N    0.2776369220 0.7225456480 0.5000000000
N    0.2777648310 0.8890000360 0.5000000000
N    0.4445844900 0.0556253930 0.5000000000
N    0.4445983100 0.2216947520 0.5000000000
N    0.4444543360 0.3871482840 0.5000000000
N    0.4444543330 0.7239723490 0.5000000000
N    0.4445983040 0.8895698260 0.5000000000
N    0.6111596820 0.0553439100 0.5000000000
N    0.6111596780 0.2224820730 0.5000000000
N    0.6110792620 0.3898802820 0.5000000000
N    0.6106273130 0.5581322300 0.5000000000
N    0.6106272800 0.7191613640 0.5000000000
N    0.6110792560 0.8878652670 0.5000000000
N    0.7775638300 0.0551831220 0.5000000000
N    0.7776751250 0.2221707210 0.5000000000
N    0.7775638370 0.3890470110 0.5000000000
N    0.7770231030 0.5557881410 0.5000000000
N    0.7783503380 0.7225083150 0.5000000000
N    0.7770230800 0.8879012190 0.5000000000
N    0.9440167230 0.0551163370 0.5000000000
N    0.9443295480 0.2221122100 0.5000000000
N    0.9443295610 0.3888836400 0.5000000000
N    0.9440167320 0.5555666840 0.5000000000
N    0.9444322420 0.7222123250 0.5000000000
N    0.9444322290 0.8888862030 0.5000000000
C    0.5554596760 0.6110630040 0.5000000000
C    0.4497396900 0.5582029970 0.5000000000
OCCUPATIONS
     1.0000   1.0000   1.0000   1.0000   1.0000   1.0000   1.0000   1.0000
     1.0000   1.0000   1.0000   1.0000   1.0000   1.0000   1.0000   1.0000
     1.0000   1.0000   1.0000   1.0000   1.0000   1.0000   1.0000   1.0000
     1.0000   1.0000   1.0000   1.0000   1.0000   1.0000   1.0000   1.0000
     1.0000   1.0000   1.0000   1.0000   1.0000   1.0000   1.0000   1.0000
     1.0000   1.0000   1.0000   1.0000   1.0000   1.0000   1.0000   1.0000
     1.0000   1.0000   1.0000   1.0000   1.0000   1.0000   1.0000   1.0000
     1.0000   1.0000   1.0000   1.0000   1.0000   1.0000   1.0000   1.0000
     1.0000   1.0000   1.0000   1.0000   1.0000   1.0000   1.0000   1.0000
     1.0000   1.0000   1.0000   1.0000   1.0000   1.0000   1.0000   1.0000
     1.0000   1.0000   1.0000   1.0000   1.0000   1.0000   1.0000   1.0000
     1.0000   1.0000   1.0000   1.0000   1.0000   1.0000   1.0000   1.0000
     1.0000   1.0000   1.0000   1.0000   1.0000   1.0000   1.0000   1.0000
     1.0000   1.0000   1.0000   1.0000   1.0000   1.0000   1.0000   1.0000
     1.0000   1.0000   1.0000   1.0000   1.0000   1.0000   1.0000   1.0000
     1.0000   1.0000   1.0000   1.0000   1.0000   1.0000   1.0000   1.0000
     1.0000   1.0000   1.0000   1.0000   1.0000   1.0000   1.0000   1.0000
     1.0000   1.0000   1.0000   1.0000   1.0000   1.0000   1.0000   0.0000
     1.0000   0.0000   0.0000   0.0000   0.0000   0.0000   0.0000   0.0000
     0.0000   0.0000   0.0000   0.0000   0.0000   0.0000   0.0000   0.0000
     0.0000   0.0000   0.0000   0.0000   0.0000   0.0000   0.0000   0.0000
     1.0000   1.0000   1.0000   1.0000   1.0000   1.0000   1.0000   1.0000
     1.0000   1.0000   1.0000   1.0000   1.0000   1.0000   1.0000   1.0000
     1.0000   1.0000   1.0000   1.0000   1.0000   1.0000   1.0000   1.0000
     1.0000   1.0000   1.0000   1.0000   1.0000   1.0000   1.0000   1.0000
     1.0000   1.0000   1.0000   1.0000   1.0000   1.0000   1.0000   1.0000
     1.0000   1.0000   1.0000   1.0000   1.0000   1.0000   1.0000   1.0000
     1.0000   1.0000   1.0000   1.0000   1.0000   1.0000   1.0000   1.0000
     1.0000   1.0000   1.0000   1.0000   1.0000   1.0000   1.0000   1.0000
     1.0000   1.0000   1.0000   1.0000   1.0000   1.0000   1.0000   1.0000
     1.0000   1.0000   1.0000   1.0000   1.0000   1.0000   1.0000   1.0000
     1.0000   1.0000   1.0000   1.0000   1.0000   1.0000   1.0000   1.0000
     1.0000   1.0000   1.0000   1.0000   1.0000   1.0000   1.0000   1.0000
     1.0000   1.0000   1.0000   1.0000   1.0000   1.0000   1.0000   1.0000
     1.0000   1.0000   1.0000   1.0000   1.0000   1.0000   1.0000   1.0000
     1.0000   1.0000   1.0000   1.0000   1.0000   1.0000   1.0000   1.0000
     1.0000   1.0000   1.0000   1.0000   1.0000   1.0000   1.0000   1.0000
     1.0000   1.0000   1.0000   1.0000   1.0000   1.0000   1.0000   1.0000
     1.0000   1.0000   1.0000   1.0000   1.0000   1.0000   1.0000   1.0000
     0.0000   0.0000   0.0000   0.0000   0.0000   0.0000   0.0000   0.0000
     0.0000   0.0000   0.0000   0.0000   0.0000   0.0000   0.0000   0.0000
     0.0000   0.0000   0.0000   0.0000   0.0000   0.0000   0.0000   0.0000

