&control
 calculation='scf',
 outdir='./temp',
 prefix="BN",
 verbosity='high',
 wf_collect=.true.,
 etot_conv_thr=1d-5,
 forc_conv_thr=1d-3,
 nstep=1000,
 pseudo_dir="~/pseudo-ONCV-proj",
 !restart_mode="restart",
 !max_seconds=28500
/
&system
 ibrav=0,
 nat=72,
 ntyp=3,
 nbnd=168,
 ecutwfc=55,
 ecutfock=110,
 !nspin=2,
 !tot_magnetization=0,
 !starting_magnetization(1)=1,
 tot_charge=0,
 force_symmorphic=.true.
/
&electrons
 electron_maxstep=600,
 mixing_beta=0.7,
 conv_thr=1.0D-8,
/
&cell
/
&ions
/
ATOMIC_SPECIES
B  0.0  B_ONCV_PBE-1.0.upf
N  0.0  N_ONCV_PBE-1.0.upf
C  0.0  C_ONCV_PBE-1.0.upf
K_POINTS automatic
3 3 1 0 0 0
CELL_PARAMETERS angstrom
15.04380218  0.          0.        
-7.52188605 13.02832383  0.        
 0.          0.         15.87532077
ATOMIC_POSITIONS crystal
B        0.055330925   0.110936920   0.500000000
B        0.055677139   0.277896124   0.500000000
B        0.055677149   0.444447364   0.500000000
B        0.055330933   0.611060353   0.500000000
B        0.055649832   0.777799880   0.500000000
B        0.055649821   0.944516306   0.500000000
B        0.222112304   0.110922781   0.500000000
B        0.222100174   0.277642326   0.500000000
B        0.223081115   0.444873714   0.500000000
B        0.222100180   0.611124178   0.500000000
B        0.222112318   0.777855844   0.500000000
B        0.222204878   0.944435608   0.500000000
B        0.388890923   0.110806917   0.500000000
B        0.388689362   0.276518071   0.500000000
B        0.389437246   0.442849009   0.500000000
B        0.389437242   0.613254591   0.500000000
B        0.388689363   0.778837642   0.500000000
B        0.388890923   0.944750348   0.500000000
B        0.555654107   0.111160228   0.500000000
B        0.555594349   0.278176509   0.500000000
B        0.554537955   0.444743471   0.500000000
B        0.554537951   0.776460826   0.500000000
B        0.555594350   0.944084187   0.500000000
B        0.722188361   0.111015039   0.500000000
B        0.722188359   0.277839682   0.500000000
B        0.721976853   0.444572527   0.500000000
B        0.722454037   0.612091831   0.500000000
B        0.722454008   0.777028524   0.500000000
B        0.721976849   0.944070659   0.500000000
B        0.888758803   0.111003105   0.500000000
B        0.888845017   0.277755688   0.500000000
B        0.888758813   0.444422039   0.500000000
B        0.888559023   0.611142566   0.500000000
B        0.889535998   0.778101174   0.500000000
B        0.888559008   0.944082787   0.500000000
N        0.110955237   0.055397419   0.500000000
N        0.110812227   0.221889621   0.500000000
N        0.111388441   0.389027364   0.500000000
N        0.110812245   0.555588911   0.500000000
N        0.110955247   0.722224125   0.500000000
N        0.111042915   0.888854610   0.500000000
N        0.277765173   0.055432184   0.500000000
N        0.277641235   0.221758477   0.500000000
N        0.277802337   0.388274978   0.500000000
N        0.277802339   0.556193630   0.500000000
N        0.277641248   0.722549040   0.500000000
N        0.277765165   0.888999261   0.500000000
N        0.444585898   0.055626098   0.500000000
N        0.444597608   0.221695948   0.500000000
N        0.444456466   0.387149888   0.500000000
N        0.444456463   0.723972874   0.500000000
N        0.444597602   0.889567928   0.500000000
N        0.611160123   0.055342554   0.500000000
N        0.611160119   0.222483870   0.500000000
N        0.611079886   0.389880732   0.500000000
N        0.610627254   0.558128100   0.500000000
N        0.610627221   0.719165435   0.500000000
N        0.611079879   0.887865440   0.500000000
N        0.777558390   0.055183101   0.500000000
N        0.777672199   0.222169258   0.500000000
N        0.777558397   0.389041592   0.500000000
N        0.777022326   0.555785432   0.500000000
N        0.778347691   0.722506992   0.500000000
N        0.777022302   0.887903150   0.500000000
N        0.944017557   0.055117579   0.500000000
N        0.944329947   0.222116970   0.500000000
N        0.944329960   0.388879279   0.500000000
N        0.944017567   0.555566276   0.500000000
N        0.944428950   0.722212701   0.500000000
N        0.944428937   0.888882535   0.500000000
C        0.555454955   0.611060643   0.500000000
C        0.449739031   0.558202668   0.500000000

