&control
 calculation='scf',
 outdir='./',
 prefix="BN",
 verbosity='high',
 wf_collect=.true.,
 etot_conv_thr=1d-5,
 forc_conv_thr=1d-3
 pseudo_dir="~/pseudo-ONCV-proj",
/
&system
 ibrav=0,
 nat=72,
 ntyp=3,
 nbnd=168,
 ecutwfc=55,
 ecutfock=110,
 nspin=2,
 tot_magnetization=0,
 starting_magnetization(1)=1,
 tot_charge=0

!input_dft = 'pbe0'
!exx_fraction = 0.409
/
&electrons
 electron_maxstep=600,
 mixing_beta=0.7,
 conv_thr=1.0D-8,
/
&cell
/
&ions
/
ATOMIC_SPECIES
B  0.0  B_ONCV_PBE-1.0.upf
N  0.0  N_ONCV_PBE-1.0.upf
C  0.0  C_ONCV_PBE-1.0.upf
K_POINTS automatic
1 1 1 0 0 0
CELL_PARAMETERS angstrom
15.04380218  0.          0.        
-7.52188605 13.02832383  0.        
 0.          0.         15.87532077
ATOMIC_POSITIONS crystal
B    0.0553309560 0.1108667462 0.5000000000
B    0.0554659982 0.2776653352 0.5000000000
B    0.0554660074 0.4444670186 0.5000000000
B    0.0553309672 0.6111305634 0.5000000000
B    0.0556051368 0.7778057246 0.5000000000
B    0.0556051218 0.9444657548 0.5000000000
B    0.2220802208 0.1108309588 0.5000000000
B    0.2217927496 0.2772998594 0.5000000000
B    0.2224518718 0.4445590968 0.5000000000
B    0.2217927540 0.6111592292 0.5000000000
B    0.2220802236 0.7779155868 0.5000000000
B    0.2222102690 0.9444382990 0.5000000000
B    0.3888605174 0.1108220066 0.5000000000
B    0.3887512250 0.2766319770 0.5000000000
B    0.3885238598 0.4422559786 0.5000000000
B    0.3885238526 0.6129342304 0.5000000000
B    0.3887512252 0.7787855844 0.5000000000
B    0.3888605134 0.9447048386 0.5000000000
B    0.5555783588 0.1111223510 0.5000000000
B    0.5554389792 0.2780073748 0.5000000000
B    0.5546866338 0.4447553422 0.5000000000
B    0.5546866410 0.7765976390 0.5000000000
B    0.5554389770 0.9440979448 0.5000000000
B    0.7221537002 0.1110139250 0.5000000000
B    0.7221537006 0.2778061448 0.5000000000
B    0.7222216670 0.4446178428 0.5000000000
B    0.7229549638 0.6118459258 0.5000000000
B    0.7229549398 0.7777753786 0.5000000000
B    0.7222216584 0.9442701792 0.5000000000
B    0.8887817652 0.1110201054 0.5000000000
B    0.8888297124 0.2777480378 0.5000000000
B    0.8887817790 0.4444280136 0.5000000000
B    0.8887690120 0.6111418280 0.5000000000
B    0.8895583592 0.7781123484 0.5000000000
B    0.8887689924 0.9442935196 0.5000000000
N    0.1109099184 0.0553715518 0.5000000000
N    0.1106086276 0.2217413152 0.5000000000
N    0.1111152364 0.3888907586 0.5000000000
N    0.1106086454 0.5555335998 0.5000000000
N    0.1109099268 0.7222046678 0.5000000000
N    0.1110136880 0.8888400020 0.5000000000
N    0.2777289102 0.0553830044 0.5000000000
N    0.2774709194 0.2216030788 0.5000000000
N    0.2772329976 0.3879622984 0.5000000000
N    0.2772330028 0.5559369664 0.5000000000
N    0.2774709364 0.7225341144 0.5000000000
N    0.2777289054 0.8890121832 0.5000000000
N    0.4446223828 0.0556443354 0.5000000000
N    0.4445681492 0.2215477000 0.5000000000
N    0.4440652536 0.3867182840 0.5000000000
N    0.4440652666 0.7240132514 0.5000000000
N    0.4445681504 0.8896867044 0.5000000000
N    0.6111500836 0.0553262804 0.5000000000
N    0.6111500796 0.2224900978 0.5000000000
N    0.6110516852 0.3899571100 0.5000000000
N    0.6114911690 0.5582341756 0.5000000000
N    0.6114911504 0.7199232816 0.5000000000
N    0.6110516848 0.8877608630 0.5000000000
N    0.7775621132 0.0552691052 0.5000000000
N    0.7776515706 0.2221589434 0.5000000000
N    0.7775621146 0.3889593118 0.5000000000
N    0.7774807582 0.5556316634 0.5000000000
N    0.7786178580 0.7226420814 0.5000000000
N    0.7774807440 0.8885153822 0.5000000000
N    0.9440984294 0.0552655874 0.5000000000
N    0.9442509648 0.2221126204 0.5000000000
N    0.9442509754 0.3888046376 0.5000000000
N    0.9440984344 0.5554991312 0.5000000000
N    0.9445206668 0.7222235458 0.5000000000
N    0.9445206538 0.8889634118 0.5000000000
C    0.5586639544 0.6126651536 0.5000000000
C    0.4484468876 0.5575565890 0.5000000000
