&control
 calculation='relax',
 outdir='./temp',
 prefix="BN",
 verbosity='high',
 wf_collect=.true.,
 etot_conv_thr = 1d-5,
 forc_conv_thr = 1d-3,
/
&system
 ibrav=0,
 nat=97,
 ntyp=3,
 nbnd=220,
 ecutwfc=50,
 nspin=2,
!  tot_magnetization=1,
 occupations = "smearing", smearing = "cold", degauss = 1d-3,
 starting_magnetization(3)=1,
 tot_charge=+1,
/
&electrons
 electron_maxstep = 600,
 conv_thr=1.0D-8,
 mixing_beta=0.7,
/
&cell
/
&ions
/
ATOMIC_SPECIES
B  0.0 B_ONCV_PBE-1.0.upf
N  0.0 N_ONCV_PBE-1.0.upf
Ti  0.0  Ti_ONCV_PBE-1.0.upf
K_POINTS automatic
3 3 1 0 0 0
CELL_PARAMETERS angstrom
17.5869960785         0.0000000000         0.0000000000
-8.7934979185        15.2307898548         0.0000000000
 0.0000000000         0.0000000000        15.0000000000
ATOMIC_POSITIONS (crystal)
B        0.047240546   0.094513103   0.495573429
B        0.047093767   0.237443765   0.495284109
B        0.047080906   0.380369632   0.495831935
B        0.047274904   0.523279557   0.495974896
B        0.047487059   0.666085584   0.496168175
B        0.047505120   0.808935335   0.496751655
B        0.047448824   0.951777031   0.496329957
B        0.190367334   0.094729150   0.497804897
B        0.189478628   0.236816676   0.499332777
B        0.189595900   0.380109335   0.501309250
B        0.189951273   0.523091827   0.500610861
B        0.190481300   0.666013681   0.498311379
B        0.190381727   0.808874644   0.496453123
B        0.190318998   0.951781380   0.496482345
B        0.333123628   0.094670181   0.498041923
B        0.333426320   0.237718458   0.503933767
B        0.330723400   0.379308576   0.512666853
B        0.332299970   0.522179320   0.514581136
B        0.333521561   0.665725248   0.504884438
B        0.333283119   0.808798302   0.498369009
B        0.333155983   0.951760512   0.496180895
B        0.475942356   0.094898732   0.496023821
B        0.475883444   0.237844583   0.500476032
B        0.477940642   0.381889931   0.514807889
B        0.477012559   0.666834416   0.513547912
B        0.476171617   0.809264295   0.500457506
B        0.475985345   0.951990763   0.496031935
B        0.618749595   0.094862525   0.494778387
B        0.618689289   0.237604051   0.496136518
B        0.618959603   0.380270918   0.502372190
B        0.617400347   0.521279319   0.514207020
B        0.619935888   0.668460761   0.511607232
B        0.619149219   0.809615382   0.500955803
B        0.618854670   0.952129955   0.495952225
B        0.761624556   0.094869966   0.494103758
B        0.761567786   0.237710498   0.494130398
B        0.761653498   0.380581177   0.496061613
B        0.761463488   0.523375126   0.500417768
B        0.761604799   0.665842993   0.504176243
B        0.762493993   0.809799470   0.499757905
B        0.761832260   0.952141987   0.495667859
B        0.904495402   0.094778041   0.494292583
B        0.904344419   0.237610830   0.493883272
B        0.904401011   0.380528462   0.494510162
B        0.904403875   0.523355902   0.495956823
B        0.904611826   0.666172555   0.498345470
B        0.904550406   0.808886112   0.498504192
B        0.904807683   0.952062124   0.496040124
N        0.095080242   0.047030947   0.496173645
N        0.094498122   0.189490355   0.495891830
N        0.094434341   0.332556887   0.496617216
N        0.094639880   0.475576554   0.496787676
N        0.095063256   0.618499632   0.496417152
N        0.095079865   0.761310196   0.496305659
N        0.095085720   0.904165219   0.496501161
N        0.237957294   0.047080634   0.497320252
N        0.238057006   0.189954784   0.500463966
N        0.236186042   0.331301567   0.502841093
N        0.236941656   0.475266096   0.504420428
N        0.237954497   0.618394448   0.501497603
N        0.237979547   0.761305965   0.497478724
N        0.237918353   0.904176431   0.496223117
N        0.380751801   0.047156820   0.496416425
N        0.380848046   0.190099910   0.500987942
N        0.381764362   0.333489877   0.510991984
N        0.375144977   0.471593721   0.525697943
N        0.380984610   0.618210984   0.512396455
N        0.380878347   0.761296115   0.501602330
N        0.380764289   0.904204490   0.496514108
N        0.523549467   0.047346935   0.495266230
N        0.523504062   0.190298623   0.496877028
N        0.523727674   0.333526519   0.504826907
N        0.527539795   0.623827849   0.523470594
N        0.523980721   0.762233770   0.503771796
N        0.523657600   0.904576144   0.496720804
N        0.666430570   0.047398483   0.494779566
N        0.666317734   0.190142969   0.494656397
N        0.666319449   0.332928642   0.497319801
N        0.665768096   0.475515692   0.504523096
N        0.665781787   0.617444982   0.510643885
N        0.667993247   0.763061073   0.502531310
N        0.666702440   0.904794859   0.496736365
N        0.809338634   0.047332904   0.494248434
N        0.809132267   0.190104267   0.493698623
N        0.809129685   0.332966616   0.494425180
N        0.809013578   0.475774690   0.496919841
N        0.809195301   0.618418579   0.501223976
N        0.809341872   0.761203861   0.501176752
N        0.809829651   0.904780105   0.496545449
N        0.952162543   0.047137508   0.495134446
N        0.951904358   0.189932262   0.493968128
N        0.951815636   0.332802601   0.494416075
N        0.951934866   0.475736182   0.495106835
N        0.952104061   0.618534947   0.496398382
N        0.952204408   0.761319101   0.497887063
N        0.952214214   0.904155512   0.496726886
Ti       0.489903684   0.510180093   0.576373992
