 &CONTROL
                 calculation = 'scf' ,
                restart_mode = 'from_scratch' ,
                     tprnfor = .true. ,
                  pseudo_dir = './',
 /
 &SYSTEM
                       ibrav = 6,
                   celldm(1) = 5.3033D0,
                   celldm(3) = 7.D0,
                         nat = 5,
                        ntyp = 1,
                     ecutwfc = 20.D0 ,
                       nosym = .true. ,
                 occupations = 'smearing' ,
                     degauss = 0.05D0 ,
                    smearing = 'methfessel-paxton' ,
 /
 &ELECTRONS
                    conv_thr = 1.D-8 ,
                 mixing_mode = 'local-TF' ,
                 mixing_beta = 0.5D0 ,
 /
ATOMIC_SPECIES
   Al    1.00000  Al_ONCV_PBE-1.0.upf
ATOMIC_POSITIONS 
   Al      0.000000000    0.000000000    2.828426000    1  1  1 
   Al      0.500000000    0.500000000    2.121320000    1  1  1 
   Al      0.000000000    0.000000000    1.414213000    1  1  1 
   Al      0.500000000    0.500000000    0.707107000    0  0  0 
   Al      0.000000000    0.000000000    0.000000000    0  0  0 
K_POINTS tpiba 
3 
   0.125000000    0.125000000    0.000000000      1.000000000 
   0.125000000    0.375000000    0.000000000      2.000000000 
   0.375000000    0.375000000    0.000000000      1.000000000 

