&control
 calculation='scf',
 outdir='./',
 prefix="BN",
 verbosity='high',
 wf_collect=.true.,
 etot_conv_thr=1d-5,
 forc_conv_thr=1d-3
 pseudo_dir="~/pseudo-ONCV-proj",
/
&system
 ibrav=0,
 nat=72,
 ntyp=3,
 nbnd=168,
 ecutwfc=55,
 ecutfock=110,
 nspin=2,
 tot_magnetization=0,
 starting_magnetization(1)=1,
 tot_charge=0
 occupations='from_input'
!input_dft = 'pbe0'
!exx_fraction = 0.409
/
&electrons
 electron_maxstep=600,
 mixing_beta=0.7,
 conv_thr=1.0D-8,
/
&cell
/
&ions
/
ATOMIC_SPECIES
B  0.0  B_ONCV_PBE-1.0.upf
N  0.0  N_ONCV_PBE-1.0.upf
C  0.0  C_ONCV_PBE-1.0.upf
K_POINTS automatic
1 1 1 0 0 0
CELL_PARAMETERS angstrom
15.04380218  0.          0.        
-7.52188605 13.02832383  0.        
 0.          0.         15.87532077
ATOMIC_POSITIONS crystal
B    0.0553302090 0.1108934555 0.5000000000
B    0.0555447995 0.2777516035 0.5000000000
B    0.0555448090 0.4444595495 0.5000000000
B    0.0553302190 0.6111031050 0.5000000000
B    0.0556226715 0.7778038670 0.5000000000
B    0.0556226580 0.9444851510 0.5000000000
B    0.2220915635 0.1108646575 0.5000000000
B    0.2219077750 0.2774285675 0.5000000000
B    0.2226872635 0.4446767910 0.5000000000
B    0.2219077800 0.6111455435 0.5000000000
B    0.2220915705 0.7778932290 0.5000000000
B    0.2222083970 0.9444373645 0.5000000000
B    0.3888709805 0.1108151255 0.5000000000
B    0.3887270735 0.2765883375 0.5000000000
B    0.3888662195 0.4424788900 0.5000000000
B    0.3888662135 0.6130536805 0.5000000000
B    0.3887270740 0.7788050775 0.5000000000
B    0.3888709780 0.9447221885 0.5000000000
B    0.5556078200 0.1111370825 0.5000000000
B    0.5554967025 0.2780704060 0.5000000000
B    0.5546299800 0.4447502470 0.5000000000
B    0.5546299830 0.7765460780 0.5000000000
B    0.5554967015 0.9440926390 0.5000000000
B    0.7221664010 0.1110138035 0.5000000000
B    0.7221664005 0.2778189635 0.5000000000
B    0.7221299690 0.4446013830 0.5000000000
B    0.7227678280 0.6119388175 0.5000000000
B    0.7227678025 0.7774953430 0.5000000000
B    0.7221299625 0.9441949335 0.5000000000
B    0.8887730265 0.1110137655 0.5000000000
B    0.8888356950 0.2777510285 0.5000000000
B    0.8887730385 0.4444256100 0.5000000000
B    0.8886905050 0.6111421595 0.5000000000
B    0.8895514325 0.7781088870 0.5000000000
B    0.8886904875 0.9442146790 0.5000000000
N    0.1109266815 0.0553812310 0.5000000000
N    0.1106853310 0.2217974260 0.5000000000
N    0.1112168035 0.3889415435 0.5000000000
N    0.1106853485 0.5555541990 0.5000000000
N    0.1109266905 0.7222117535 0.5000000000
N    0.1110265595 0.8888464355 0.5000000000
N    0.2777423835 0.0554010305 0.5000000000
N    0.2775331655 0.2216610025 0.5000000000
N    0.2774466090 0.3880795240 0.5000000000
N    0.2774466130 0.5560333540 0.5000000000
N    0.2775331810 0.7225384395 0.5000000000
N    0.2777423775 0.8890076280 0.5000000000
N    0.4446081730 0.0556372320 0.5000000000
N    0.4445794595 0.2216028445 0.5000000000
N    0.4442111595 0.3868795340 0.5000000000
N    0.4442111665 0.7239979130 0.5000000000
N    0.4445794580 0.8896428750 0.5000000000
N    0.6111536830 0.0553328915 0.5000000000
N    0.6111536790 0.2224870885 0.5000000000
N    0.6110620265 0.3899282995 0.5000000000
N    0.6111672230 0.5581959460 0.5000000000
N    0.6111671990 0.7196375625 0.5000000000
N    0.6110620240 0.8878000145 0.5000000000
N    0.7775627570 0.0552368615 0.5000000000
N    0.7776604035 0.2221633600 0.5000000000
N    0.7775627605 0.3889921990 0.5000000000
N    0.7773091375 0.5556903425 0.5000000000
N    0.7785175380 0.7225919190 0.5000000000
N    0.7773091200 0.8882850710 0.5000000000
N    0.9440677895 0.0552096185 0.5000000000
N    0.9442804335 0.2221124665 0.5000000000
N    0.9442804450 0.3888342635 0.5000000000
N    0.9440677960 0.5555244635 0.5000000000
N    0.9444875075 0.7222193380 0.5000000000
N    0.9444874945 0.8889344585 0.5000000000
C    0.5574623500 0.6120643475 0.5000000000
C    0.4489316885 0.5577989920 0.5000000000
OCCUPATIONS
     1.0000   1.0000   1.0000   1.0000   1.0000   1.0000   1.0000   1.0000
     1.0000   1.0000   1.0000   1.0000   1.0000   1.0000   1.0000   1.0000
     1.0000   1.0000   1.0000   1.0000   1.0000   1.0000   1.0000   1.0000
     1.0000   1.0000   1.0000   1.0000   1.0000   1.0000   1.0000   1.0000
     1.0000   1.0000   1.0000   1.0000   1.0000   1.0000   1.0000   1.0000
     1.0000   1.0000   1.0000   1.0000   1.0000   1.0000   1.0000   1.0000
     1.0000   1.0000   1.0000   1.0000   1.0000   1.0000   1.0000   1.0000
     1.0000   1.0000   1.0000   1.0000   1.0000   1.0000   1.0000   1.0000
     1.0000   1.0000   1.0000   1.0000   1.0000   1.0000   1.0000   1.0000
     1.0000   1.0000   1.0000   1.0000   1.0000   1.0000   1.0000   1.0000
     1.0000   1.0000   1.0000   1.0000   1.0000   1.0000   1.0000   1.0000
     1.0000   1.0000   1.0000   1.0000   1.0000   1.0000   1.0000   1.0000
     1.0000   1.0000   1.0000   1.0000   1.0000   1.0000   1.0000   1.0000
     1.0000   1.0000   1.0000   1.0000   1.0000   1.0000   1.0000   1.0000
     1.0000   1.0000   1.0000   1.0000   1.0000   1.0000   1.0000   1.0000
     1.0000   1.0000   1.0000   1.0000   1.0000   1.0000   1.0000   1.0000
     1.0000   1.0000   1.0000   1.0000   1.0000   1.0000   1.0000   1.0000
     1.0000   1.0000   1.0000   1.0000   1.0000   1.0000   1.0000   0.0000
     1.0000   0.0000   0.0000   0.0000   0.0000   0.0000   0.0000   0.0000
     0.0000   0.0000   0.0000   0.0000   0.0000   0.0000   0.0000   0.0000
     0.0000   0.0000   0.0000   0.0000   0.0000   0.0000   0.0000   0.0000
     1.0000   1.0000   1.0000   1.0000   1.0000   1.0000   1.0000   1.0000
     1.0000   1.0000   1.0000   1.0000   1.0000   1.0000   1.0000   1.0000
     1.0000   1.0000   1.0000   1.0000   1.0000   1.0000   1.0000   1.0000
     1.0000   1.0000   1.0000   1.0000   1.0000   1.0000   1.0000   1.0000
     1.0000   1.0000   1.0000   1.0000   1.0000   1.0000   1.0000   1.0000
     1.0000   1.0000   1.0000   1.0000   1.0000   1.0000   1.0000   1.0000
     1.0000   1.0000   1.0000   1.0000   1.0000   1.0000   1.0000   1.0000
     1.0000   1.0000   1.0000   1.0000   1.0000   1.0000   1.0000   1.0000
     1.0000   1.0000   1.0000   1.0000   1.0000   1.0000   1.0000   1.0000
     1.0000   1.0000   1.0000   1.0000   1.0000   1.0000   1.0000   1.0000
     1.0000   1.0000   1.0000   1.0000   1.0000   1.0000   1.0000   1.0000
     1.0000   1.0000   1.0000   1.0000   1.0000   1.0000   1.0000   1.0000
     1.0000   1.0000   1.0000   1.0000   1.0000   1.0000   1.0000   1.0000
     1.0000   1.0000   1.0000   1.0000   1.0000   1.0000   1.0000   1.0000
     1.0000   1.0000   1.0000   1.0000   1.0000   1.0000   1.0000   1.0000
     1.0000   1.0000   1.0000   1.0000   1.0000   1.0000   1.0000   1.0000
     1.0000   1.0000   1.0000   1.0000   1.0000   1.0000   1.0000   1.0000
     1.0000   1.0000   1.0000   1.0000   1.0000   1.0000   1.0000   1.0000
     0.0000   0.0000   0.0000   0.0000   0.0000   0.0000   0.0000   0.0000
     0.0000   0.0000   0.0000   0.0000   0.0000   0.0000   0.0000   0.0000
     0.0000   0.0000   0.0000   0.0000   0.0000   0.0000   0.0000   0.0000

