&control
 calculation='scf',
 outdir='./',
 prefix="BN",
 verbosity='high',
 wf_collect=.true.,
 etot_conv_thr=1d-5,
 forc_conv_thr=1d-3
 pseudo_dir="~/pseudo-ONCV-proj",
/
&system
 ibrav=0,
 nat=72,
 ntyp=3,
 nbnd=168,
 ecutwfc=55,
 ecutfock=110,
 nspin=2,
 tot_magnetization=0,
 starting_magnetization(1)=1,
 tot_charge=0

!input_dft = 'pbe0'
!exx_fraction = 0.409
/
&electrons
 electron_maxstep=600,
 mixing_beta=0.7,
 conv_thr=1.0D-8,
/
&cell
/
&ions
/
ATOMIC_SPECIES
B  0.0  B_ONCV_PBE-1.0.upf
N  0.0  N_ONCV_PBE-1.0.upf
C  0.0  C_ONCV_PBE-1.0.upf
K_POINTS automatic
1 1 1 0 0 0
CELL_PARAMETERS angstrom
15.04380218  0.          0.        
-7.52188605 13.02832383  0.        
 0.          0.         15.87532077
ATOMIC_POSITIONS crystal
B    0.0553295865 0.1109157132 0.5000000000
B    0.0556104672 0.2778234938 0.5000000000
B    0.0556104770 0.4444533253 0.5000000000
B    0.0553295955 0.6110802230 0.5000000000
B    0.0556372837 0.7778023190 0.5000000000
B    0.0556372715 0.9445013145 0.5000000000
B    0.2221010158 0.1108927398 0.5000000000
B    0.2220036295 0.2775358243 0.5000000000
B    0.2228834232 0.4447748695 0.5000000000
B    0.2220036350 0.6111341387 0.5000000000
B    0.2221010262 0.7778745975 0.5000000000
B    0.2222068370 0.9444365857 0.5000000000
B    0.3888796998 0.1108093913 0.5000000000
B    0.3887069472 0.2765519713 0.5000000000
B    0.3891515193 0.4426646495 0.5000000000
B    0.3891515142 0.6131532223 0.5000000000
B    0.3887069480 0.7788213217 0.5000000000
B    0.3888796985 0.9447366468 0.5000000000
B    0.5556323710 0.1111493587 0.5000000000
B    0.5555448053 0.2781229320 0.5000000000
B    0.5545827685 0.4447460010 0.5000000000
B    0.5545827680 0.7765031105 0.5000000000
B    0.5555448053 0.9440882175 0.5000000000
B    0.7221769850 0.1110137022 0.5000000000
B    0.7221769838 0.2778296458 0.5000000000
B    0.7220535540 0.4445876665 0.5000000000
B    0.7226118815 0.6120162272 0.5000000000
B    0.7226118548 0.7772619800 0.5000000000
B    0.7220535492 0.9441322288 0.5000000000
B    0.8887657442 0.1110084822 0.5000000000
B    0.8888406805 0.2777535208 0.5000000000
B    0.8887657548 0.4444236070 0.5000000000
B    0.8886250825 0.6111424358 0.5000000000
B    0.8895456603 0.7781060025 0.5000000000
B    0.8886250667 0.9441489785 0.5000000000
N    0.1109406508 0.0553892970 0.5000000000
N    0.1107492505 0.2218441850 0.5000000000
N    0.1113014427 0.3889838642 0.5000000000
N    0.1107492677 0.5555713650 0.5000000000
N    0.1109406603 0.7222176582 0.5000000000
N    0.1110372857 0.8888517968 0.5000000000
N    0.2777536112 0.0554160523 0.5000000000
N    0.2775850372 0.2217092723 0.5000000000
N    0.2776246185 0.3881772120 0.5000000000
N    0.2776246215 0.5561136770 0.5000000000
N    0.2775850515 0.7225420437 0.5000000000
N    0.2777536042 0.8890038320 0.5000000000
N    0.4445963315 0.0556313125 0.5000000000
N    0.4445888848 0.2216487983 0.5000000000
N    0.4443327478 0.3870139090 0.5000000000
N    0.4443327497 0.7239851310 0.5000000000
N    0.4445888810 0.8896063505 0.5000000000
N    0.6111566825 0.0553384008 0.5000000000
N    0.6111566785 0.2224845807 0.5000000000
N    0.6110706442 0.3899042907 0.5000000000
N    0.6108972680 0.5581640880 0.5000000000
N    0.6108972395 0.7193994632 0.5000000000
N    0.6110706400 0.8878326408 0.5000000000
N    0.7775632935 0.0552099917 0.5000000000
N    0.7776677643 0.2221670405 0.5000000000
N    0.7775632988 0.3890196050 0.5000000000
N    0.7771661202 0.5557392418 0.5000000000
N    0.7784339380 0.7225501170 0.5000000000
N    0.7771661000 0.8880931450 0.5000000000
N    0.9440422562 0.0551629777 0.5000000000
N    0.9443049908 0.2221123382 0.5000000000
N    0.9443050030 0.3888589517 0.5000000000
N    0.9440422640 0.5555455738 0.5000000000
N    0.9444598747 0.7222158315 0.5000000000
N    0.9444598617 0.8889103307 0.5000000000
C    0.5564610130 0.6115636758 0.5000000000
C    0.4493356893 0.5580009945 0.5000000000
