&control
 calculation='relax',
 outdir='./temp',
 prefix="BN",
 verbosity='high',
 wf_collect=.true.,
 etot_conv_thr=1d-5,
 forc_conv_thr=1d-3,
 nstep=1000,
 pseudo_dir="~/pseudo-ONCV-proj",
/
&system
 ibrav=0,
 nat=72,
 ntyp=3,
 nbnd=168,
 ecutwfc=55,
 ecutfock=110,
 nspin=2,
 tot_magnetization=0,
 starting_magnetization(1)=1,
 tot_charge=0,
 occupations="from_input",
/
&electrons
 electron_maxstep=600,
 mixing_beta=0.7,
 conv_thr=1.0D-8,
/
&cell
/
&ions
/
ATOMIC_SPECIES
B  0.0  B_ONCV_PBE-1.0.upf
N  0.0  N_ONCV_PBE-1.0.upf
C  0.0  C_ONCV_PBE-1.0.upf
K_POINTS automatic
1 1 1 0 0 0
CELL_PARAMETERS angstrom
15.04380218  0.          0.        
-7.52188605 13.02832383  0.        
 0.          0.         15.87532077
ATOMIC_POSITIONS crystal
B        0.055331454   0.110848940   0.500000000
B        0.055413464   0.277607823   0.500000000
B        0.055413473   0.444471998   0.500000000
B        0.055331466   0.611148869   0.500000000
B        0.055593447   0.777806963   0.500000000
B        0.055593431   0.944452824   0.500000000
B        0.222072659   0.110808493   0.500000000
B        0.221716066   0.277214054   0.500000000
B        0.222294944   0.444480634   0.500000000
B        0.221716070   0.611168353   0.500000000
B        0.222072659   0.777930492   0.500000000
B        0.222211517   0.944438922   0.500000000
B        0.388853542   0.110826594   0.500000000
B        0.388767326   0.276661070   0.500000000
B        0.388295620   0.442107371   0.500000000
B        0.388295612   0.612854597   0.500000000
B        0.388767326   0.778772589   0.500000000
B        0.388853537   0.944693272   0.500000000
B        0.555558718   0.111112530   0.500000000
B        0.555400497   0.277965354   0.500000000
B        0.554724403   0.444758739   0.500000000
B        0.554724413   0.776632013   0.500000000
B        0.555400494   0.944101482   0.500000000
B        0.722145233   0.111014006   0.500000000
B        0.722145234   0.277797599   0.500000000
B        0.722282799   0.444628816   0.500000000
B        0.723079721   0.611783998   0.500000000
B        0.723079698   0.777962069   0.500000000
B        0.722282789   0.944320343   0.500000000
B        0.888787591   0.111024332   0.500000000
B        0.888825724   0.277746044   0.500000000
B        0.888787606   0.444429616   0.500000000
B        0.888821350   0.611141607   0.500000000
B        0.889562977   0.778114656   0.500000000
B        0.888821329   0.944346080   0.500000000
N        0.110898743   0.055365099   0.500000000
N        0.110557492   0.221703908   0.500000000
N        0.111047525   0.388856902   0.500000000
N        0.110557510   0.555519867   0.500000000
N        0.110898751   0.722199944   0.500000000
N        0.111005107   0.888835713   0.500000000
N        0.277719928   0.055370987   0.500000000
N        0.277429422   0.221564463   0.500000000
N        0.277090590   0.387884148   0.500000000
N        0.277090596   0.555872708   0.500000000
N        0.277429440   0.722531231   0.500000000
N        0.277719924   0.889015220   0.500000000
N        0.444631856   0.055649071   0.500000000
N        0.444560609   0.221510937   0.500000000
N        0.443967983   0.386610784   0.500000000
N        0.443968000   0.724023477   0.500000000
N        0.444560612   0.889715924   0.500000000
N        0.611147684   0.055321873   0.500000000
N        0.611147680   0.222492104   0.500000000
N        0.611044791   0.389976317   0.500000000
N        0.611707133   0.558259662   0.500000000
N        0.611707118   0.720113761   0.500000000
N        0.611044792   0.887734762   0.500000000
N        0.777561684   0.055290601   0.500000000
N        0.777645682   0.222155999   0.500000000
N        0.777561684   0.388937387   0.500000000
N        0.777595172   0.555592544   0.500000000
N        0.778684738   0.722675523   0.500000000
N        0.777595160   0.888668923   0.500000000
N        0.944118856   0.055302900   0.500000000
N        0.944231319   0.222112723   0.500000000
N        0.944231329   0.388784887   0.500000000
N        0.944118860   0.555482243   0.500000000
N        0.944542773   0.722226351   0.500000000
N        0.944542760   0.888982714   0.500000000
C        0.559465024   0.613065691   0.500000000
C        0.448123687   0.557394987   0.500000000
OCCUPATIONS
     1.0000   1.0000   1.0000   1.0000   1.0000   1.0000   1.0000   1.0000
     1.0000   1.0000   1.0000   1.0000   1.0000   1.0000   1.0000   1.0000
     1.0000   1.0000   1.0000   1.0000   1.0000   1.0000   1.0000   1.0000
     1.0000   1.0000   1.0000   1.0000   1.0000   1.0000   1.0000   1.0000
     1.0000   1.0000   1.0000   1.0000   1.0000   1.0000   1.0000   1.0000
     1.0000   1.0000   1.0000   1.0000   1.0000   1.0000   1.0000   1.0000
     1.0000   1.0000   1.0000   1.0000   1.0000   1.0000   1.0000   1.0000
     1.0000   1.0000   1.0000   1.0000   1.0000   1.0000   1.0000   1.0000
     1.0000   1.0000   1.0000   1.0000   1.0000   1.0000   1.0000   1.0000
     1.0000   1.0000   1.0000   1.0000   1.0000   1.0000   1.0000   1.0000
     1.0000   1.0000   1.0000   1.0000   1.0000   1.0000   1.0000   1.0000
     1.0000   1.0000   1.0000   1.0000   1.0000   1.0000   1.0000   1.0000
     1.0000   1.0000   1.0000   1.0000   1.0000   1.0000   1.0000   1.0000
     1.0000   1.0000   1.0000   1.0000   1.0000   1.0000   1.0000   1.0000
     1.0000   1.0000   1.0000   1.0000   1.0000   1.0000   1.0000   1.0000
     1.0000   1.0000   1.0000   1.0000   1.0000   1.0000   1.0000   1.0000
     1.0000   1.0000   1.0000   1.0000   1.0000   1.0000   1.0000   1.0000
     1.0000   1.0000   1.0000   1.0000   1.0000   1.0000   1.0000   0.0000
     1.0000   0.0000   0.0000   0.0000   0.0000   0.0000   0.0000   0.0000
     0.0000   0.0000   0.0000   0.0000   0.0000   0.0000   0.0000   0.0000
     0.0000   0.0000   0.0000   0.0000   0.0000   0.0000   0.0000   0.0000
     1.0000   1.0000   1.0000   1.0000   1.0000   1.0000   1.0000   1.0000
     1.0000   1.0000   1.0000   1.0000   1.0000   1.0000   1.0000   1.0000
     1.0000   1.0000   1.0000   1.0000   1.0000   1.0000   1.0000   1.0000
     1.0000   1.0000   1.0000   1.0000   1.0000   1.0000   1.0000   1.0000
     1.0000   1.0000   1.0000   1.0000   1.0000   1.0000   1.0000   1.0000
     1.0000   1.0000   1.0000   1.0000   1.0000   1.0000   1.0000   1.0000
     1.0000   1.0000   1.0000   1.0000   1.0000   1.0000   1.0000   1.0000
     1.0000   1.0000   1.0000   1.0000   1.0000   1.0000   1.0000   1.0000
     1.0000   1.0000   1.0000   1.0000   1.0000   1.0000   1.0000   1.0000
     1.0000   1.0000   1.0000   1.0000   1.0000   1.0000   1.0000   1.0000
     1.0000   1.0000   1.0000   1.0000   1.0000   1.0000   1.0000   1.0000
     1.0000   1.0000   1.0000   1.0000   1.0000   1.0000   1.0000   1.0000
     1.0000   1.0000   1.0000   1.0000   1.0000   1.0000   1.0000   1.0000
     1.0000   1.0000   1.0000   1.0000   1.0000   1.0000   1.0000   1.0000
     1.0000   1.0000   1.0000   1.0000   1.0000   1.0000   1.0000   1.0000
     1.0000   1.0000   1.0000   1.0000   1.0000   1.0000   1.0000   1.0000
     1.0000   1.0000   1.0000   1.0000   1.0000   1.0000   1.0000   1.0000
     1.0000   1.0000   1.0000   1.0000   1.0000   1.0000   1.0000   1.0000
     0.0000   0.0000   0.0000   0.0000   0.0000   0.0000   0.0000   0.0000
     0.0000   0.0000   0.0000   0.0000   0.0000   0.0000   0.0000   0.0000
     0.0000   0.0000   0.0000   0.0000   0.0000   0.0000   0.0000   0.0000

