&control
 calculation='nscf',
 pseudo_dir='/home/wufeng/programs/pseudo-ONCV-proj/'
 outdir='./out/',
 wf_collect=.true.,
 prefix='bn',
 verbosity='high',
 etot_conv_thr = 1d-5,
 forc_conv_thr = 1d-3
 !max_seconds=84000,
/
&system
 ibrav=0,
 nat=287,
 ntyp=2,
 ecutwfc=45,
 !ecutfock=90,
 nspin = 2,
 occupations = "smearing",
 smearing = "cold",
 degauss = 1d-3,
 starting_magnetization(1) = 1,
 tot_charge=0,
 nbnd = 709,
 !input_dft = 'pbe0',
 !exx_fraction = 0.409,
/
&electrons
 electron_maxstep = 500,
 mixing_beta=0.7,
 conv_thr=1.0D-8,
 diago_full_acc=.true.,
/
&cell
/
&ions
/
K_POINTS automatic
1 1 1 0 0 0
ATOMIC_SPECIES
B 10.811 B_ONCV_PBE-1.0.upf
N 14.0067 N_ONCV_PBE-1.0.upf
CELL_PARAMETERS angstrom
30.08746137 0.0 0.0
-15.043730685 26.0565058818029496 0.0
0.0 0.0 10.583544952
ATOMIC_POSITIONS (crystal)
N        0.444454149   0.469950210   0.000000000
N        0.444202612   0.553490806   0.000000000
N        0.444162610   0.637352373   0.000000000
N        0.444131264   0.721263022   0.000000000
N        0.444161450   0.805117805   0.000000000
N        0.444156975   0.056761171   0.000000000
N        0.444176777   0.140701657   0.000000000
N        0.444429204   0.224472097   0.000000000
N        0.447248750   0.308173309   0.000000000
N        0.447278383   0.389003726   0.000000000
N        0.529273606   0.472447615   0.000000000
N        0.527802415   0.554543596   0.000000000
N        0.527468379   0.637741442   0.000000000
N        0.527330132   0.721301675   0.000000000
N        0.527291740   0.804931328   0.000000000
N        0.527344938   0.056048064   0.000000000
N        0.527451353   0.139663273   0.000000000
N        0.527826860   0.223229757   0.000000000
N        0.529285840   0.306740996   0.000000000
N        0.531095579   0.390475864   0.000000000
N        0.613127914   0.473250008   0.000000000
N        0.612021941   0.555787882   0.000000000
N        0.611115758   0.638403563   0.000000000
N        0.610717448   0.721540913   0.000000000
N        0.610531327   0.804925295   0.000000000
N        0.610552972   0.055637479   0.000000000
N        0.610711246   0.139178224   0.000000000
N        0.611124881   0.222694557   0.000000000
N        0.612059783   0.306216426   0.000000000
N        0.613124583   0.389789543   0.000000000
N        0.696049635   0.473007775   0.000000000
N        0.695780479   0.556281371   0.000000000
N        0.694991191   0.639069769   0.000000000
N        0.694311873   0.721910668   0.000000000
N        0.693911825   0.805032724   0.000000000
N        0.693738396   0.055362809   0.000000000
N        0.693913022   0.138881763   0.000000000
N        0.694321935   0.222419316   0.000000000
N        0.695018899   0.305950350   0.000000000
N        0.695768549   0.389495532   0.000000000
N        0.779001579   0.472813113   0.000000000
N        0.779034607   0.556226194   0.000000000
N        0.778669072   0.639393502   0.000000000
N        0.778036007   0.722299220   0.000000000
N        0.777472341   0.805240790   0.000000000
N        0.776906150   0.055184138   0.000000000
N        0.777076351   0.138653493   0.000000000
N        0.777500747   0.222215937   0.000000000
N        0.778080472   0.305781044   0.000000000
N        0.778654108   0.389302520   0.000000000
N        0.028301987   0.472180319   0.000000000
N        0.028535996   0.555774709   0.000000000
N        0.028605486   0.639324294   0.000000000
N        0.028531404   0.722765960   0.000000000
N        0.028324589   0.806121575   0.000000000
N        0.026412416   0.054821455   0.000000000
N        0.026087559   0.138086216   0.000000000
N        0.026391141   0.221653882   0.000000000
N        0.027213626   0.305228586   0.000000000
N        0.027937328   0.388699959   0.000000000
N        0.111562330   0.471829756   0.000000000
N        0.111779921   0.555445135   0.000000000
N        0.111857911   0.639132125   0.000000000
N        0.111826755   0.722729890   0.000000000
N        0.111777896   0.806299551   0.000000000
N        0.110061110   0.055270307   0.000000000
N        0.108870718   0.137705925   0.000000000
N        0.108854993   0.221207423   0.000000000
N        0.110053262   0.304863564   0.000000000
N        0.111183658   0.388353621   0.000000000
N        0.194866495   0.471200101   0.000000000
N        0.194974802   0.554914253   0.000000000
N        0.195034634   0.638720350   0.000000000
N        0.195016562   0.722507082   0.000000000
N        0.195012249   0.806281598   0.000000000
N        0.194516738   0.056945412   0.000000000
N        0.192587211   0.138518124   0.000000000
N        0.190588941   0.220294390   0.000000000
N        0.192556279   0.304040573   0.000000000
N        0.194559546   0.387601551   0.000000000
N        0.278163319   0.469907415   0.000000000
N        0.278126710   0.554050143   0.000000000
N        0.278099327   0.638097427   0.000000000
N        0.278087757   0.722059576   0.000000000
N        0.278085365   0.806007711   0.000000000
N        0.278121765   0.058227303   0.000000000
N        0.277987663   0.142530249   0.000000000
N        0.273516681   0.222726468   0.000000000
N        0.273497057   0.300761319   0.000000000
N        0.301124648   0.275554534   0.000000000
N        0.277997121   0.385435733   0.000000000
N        0.361227847   0.467980472   0.000000000
N        0.361189683   0.553051486   0.000000000
N        0.361093623   0.637404813   0.000000000
N        0.361097649   0.721529294   0.000000000
N        0.361093568   0.805519787   0.000000000
N        0.361147419   0.058092604   0.000000000
N        0.361186688   0.143155095   0.000000000
N        0.361710751   0.230562900   0.000000000
N        0.361729884   0.381077392   0.000000000
B        0.473663130   0.443958268   0.000000000
B        0.472027893   0.525841786   0.000000000
B        0.471844210   0.609397847   0.000000000
B        0.471765092   0.693201720   0.000000000
B        0.471768454   0.777030725   0.000000000
B        0.471799402   0.028575627   0.000000000
B        0.471819550   0.112411760   0.000000000
B        0.472025440   0.196174363   0.000000000
B        0.473666262   0.279645754   0.000000000
B        0.476423669   0.363160309   0.000000000
B        0.557867736   0.445631598   0.000000000
B        0.556452586   0.527701193   0.000000000
B        0.555443047   0.610171125   0.000000000
B        0.555116371   0.693459923   0.000000000
B        0.554992302   0.776997358   0.000000000
B        0.555014619   0.028020925   0.000000000
B        0.555122336   0.111647884   0.000000000
B        0.555443482   0.195225506   0.000000000
B        0.556486767   0.278707410   0.000000000
B        0.557876090   0.362128459   0.000000000
B        0.640664999   0.445295111   0.000000000
B        0.640345826   0.528563181   0.000000000
B        0.639424519   0.611164622   0.000000000
B        0.638702828   0.693943832   0.000000000
B        0.638352974   0.777140035   0.000000000
B        0.638212287   0.027669613   0.000000000
B        0.638359032   0.111230110   0.000000000
B        0.638713181   0.194757108   0.000000000
B        0.639453178   0.278246571   0.000000000
B        0.640356670   0.361742932   0.000000000
B        0.723555240   0.445049634   0.000000000
B        0.723571763   0.528507347   0.000000000
B        0.723169237   0.611665245   0.000000000
B        0.722468908   0.694488997   0.000000000
B        0.721894541   0.777415486   0.000000000
B        0.721398934   0.027447809   0.000000000
B        0.721541575   0.110952950   0.000000000
B        0.721907135   0.194484974   0.000000000
B        0.722504232   0.278008126   0.000000000
B        0.723165878   0.361520000   0.000000000
B        0.806530709   0.444875584   0.000000000
B        0.806698919   0.528358201   0.000000000
B        0.806566190   0.611706934   0.000000000
B        0.806137193   0.694813886   0.000000000
B        0.805561141   0.777741094   0.000000000
B        0.804571029   0.027306096   0.000000000
B        0.804684423   0.110752766   0.000000000
B        0.805043552   0.194262388   0.000000000
B        0.805599770   0.277830547   0.000000000
B        0.806150181   0.361362984   0.000000000
B        0.055962035   0.444270617   0.000000000
B        0.056199028   0.527806345   0.000000000
B        0.056311950   0.611402352   0.000000000
B        0.056296746   0.694928616   0.000000000
B        0.056205709   0.778384765   0.000000000
B        0.054543200   0.027399778   0.000000000
B        0.053603728   0.110121272   0.000000000
B        0.053598044   0.193558741   0.000000000
B        0.054539569   0.277213879   0.000000000
B        0.055529042   0.360795452   0.000000000
B        0.139249195   0.443884073   0.000000000
B        0.139422848   0.527425363   0.000000000
B        0.139506687   0.611093604   0.000000000
B        0.139511970   0.694767174   0.000000000
B        0.139493444   0.778393040   0.000000000
B        0.138754089   0.028439533   0.000000000
B        0.137119343   0.110467988   0.000000000
B        0.135656357   0.192847465   0.000000000
B        0.137095072   0.276689889   0.000000000
B        0.138781005   0.360390940   0.000000000
B        0.222562516   0.443105276   0.000000000
B        0.222613568   0.526785328   0.000000000
B        0.222615831   0.610568007   0.000000000
B        0.222613865   0.694393999   0.000000000
B        0.222615996   0.778210947   0.000000000
B        0.222527504   0.029450413   0.000000000
B        0.222083851   0.112653239   0.000000000
B        0.218433806   0.193373834   0.000000000
B        0.218413405   0.275040088   0.000000000
B        0.222086589   0.359417422   0.000000000
B        0.305702119   0.441293153   0.000000000
B        0.305706654   0.525680815   0.000000000
B        0.305631880   0.609801242   0.000000000
B        0.305626978   0.693835090   0.000000000
B        0.305628408   0.777800290   0.000000000
B        0.305662949   0.029984712   0.000000000
B        0.305668763   0.114363819   0.000000000
B        0.305786330   0.198991220   0.000000000
B        0.305792523   0.356764217   0.000000000
B        0.388760681   0.438823877   0.000000000
B        0.388656460   0.524431525   0.000000000
B        0.388645576   0.609069304   0.000000000
B        0.388624769   0.693272003   0.000000000
B        0.388660090   0.777314306   0.000000000
B        0.388639731   0.029545979   0.000000000
B        0.388620650   0.114166428   0.000000000
B        0.388730691   0.199855254   0.000000000
B        0.392566557   0.289304067   0.000000000
B        0.392577167   0.353168057   0.000000000
N        0.027908932   0.889275440   0.000000000
N        0.027197724   0.972050185   0.000000000
N        0.111577384   0.889774170   0.000000000
N        0.111153400   0.972895491   0.000000000
N        0.194980106   0.890047336   0.000000000
N        0.194842876   0.973671869   0.000000000
N        0.278110147   0.889990805   0.000000000
N        0.278103911   0.974036096   0.000000000
N        0.361121668   0.889575111   0.000000000
N        0.361123290   0.973669880   0.000000000
N        0.444173832   0.889016135   0.000000000
N        0.444176908   0.972902769   0.000000000
N        0.527308503   0.888640568   0.000000000
N        0.527321760   0.972394870   0.000000000
N        0.610467795   0.888448448   0.000000000
N        0.610494382   0.972055986   0.000000000
N        0.693699316   0.888381669   0.000000000
N        0.693665303   0.971854853   0.000000000
N        0.777060431   0.888396853   0.000000000
N        0.776879969   0.971753151   0.000000000
N        0.860055516   0.055057535   0.000000000
N        0.860188195   0.138500324   0.000000000
N        0.860608051   0.222036689   0.000000000
N        0.861179953   0.305617167   0.000000000
N        0.861678094   0.389133251   0.000000000
N        0.862017909   0.472641539   0.000000000
N        0.862175604   0.556104427   0.000000000
N        0.862057990   0.639429766   0.000000000
N        0.861666699   0.722565213   0.000000000
N        0.861125972   0.805533906   0.000000000
N        0.860593524   0.888525629   0.000000000
N        0.860194175   0.971710820   0.000000000
N        0.943218636   0.054939650   0.000000000
N        0.943194412   0.138339494   0.000000000
N        0.943596766   0.221880900   0.000000000
N        0.944228245   0.305435336   0.000000000
N        0.944776342   0.388939522   0.000000000
N        0.945113153   0.472447696   0.000000000
N        0.945324801   0.555972735   0.000000000
N        0.945346508   0.639402716   0.000000000
N        0.945138713   0.722696555   0.000000000
N        0.944755924   0.805842303   0.000000000
N        0.944194325   0.888795118   0.000000000
N        0.943610289   0.971752006   0.000000000
B        0.055962638   0.861721904   0.000000000
B        0.055498656   0.944785819   0.000000000
B        0.139418798   0.861989205   0.000000000
B        0.139230744   0.945411104   0.000000000
B        0.222615106   0.862025392   0.000000000
B        0.222587963   0.945808639   0.000000000
B        0.305645412   0.861786884   0.000000000
B        0.305644876   0.945817211   0.000000000
B        0.388663287   0.861314113   0.000000000
B        0.388671610   0.945365565   0.000000000
B        0.471778325   0.860872084   0.000000000
B        0.471789552   0.944738837   0.000000000
B        0.554947749   0.860625210   0.000000000
B        0.554960360   0.944329793   0.000000000
B        0.638179469   0.860553218   0.000000000
B        0.638146025   0.944086241   0.000000000
B        0.721520138   0.860594410   0.000000000
B        0.721368623   0.943971077   0.000000000
B        0.805026414   0.860744247   0.000000000
B        0.804669273   0.943942952   0.000000000
B        0.887756845   0.027211753   0.000000000
B        0.887746168   0.110586388   0.000000000
B        0.888091196   0.194082013   0.000000000
B        0.888667882   0.277650494   0.000000000
B        0.889224963   0.361206372   0.000000000
B        0.889594920   0.444715990   0.000000000
B        0.889820400   0.528215511   0.000000000
B        0.889843246   0.611645351   0.000000000
B        0.889615692   0.694924867   0.000000000
B        0.889207015   0.778029399   0.000000000
B        0.888638855   0.860984924   0.000000000
B        0.888088284   0.944001280   0.000000000
B        0.970991019   0.027153450   0.000000000
B        0.970720427   0.110399824   0.000000000
B        0.970975997   0.193882911   0.000000000
B        0.971674192   0.277474302   0.000000000
B        0.972345841   0.361022729   0.000000000
B        0.972737311   0.444525551   0.000000000
B        0.972985138   0.528054698   0.000000000
B        0.973080632   0.611557135   0.000000000
B        0.972995974   0.694962046   0.000000000
B        0.972752809   0.778239126   0.000000000
B        0.972318577   0.861338220   0.000000000
B        0.971657380   0.944220742   0.000000000
