&input
 fildyn = 'matdyn'
 asr = 'simple',
 filout = 'dynmat.dat',
 filxsf = 'dynmat.axsf',
 lperm = .true.
/
