phonons of BN
 &inputph
  !alpha_mix(1)=0.7,
  tr2_ph=1.0d-15,
  prefix='BN',
  outdir='../temp',
  !fildyn='BN.dyn',
  !fildvscf='dvscf',
  !ldisp=.true.,
  !nq1=1, nq2=1, nq3=1,
  !recover=.true.
  epsil=.true.,
  verbosity = 'high'
  !amass(1) = 10.81        ! B
  !amass(2) = 14.007       ! N
  !amass(3) = 12.01070
 /
0.0 0.0 0.0
