 &control
    calculation = 'relax',
    prefix='fe2o3',
    wf_collect = .true.,
 /
 &system
    ibrav=  0, nat=  120, ntyp= 4,
    ecutwfc = 40.0, ecutrho = 240.0,
    occupations='smearing', smearing='mp', degauss=0.005,
    nspin=2,
    starting_magnetization(2)= -0.5, starting_magnetization(3)= 0.5,
    lda_plus_u=.true.
    Hubbard_U(2)=4.3, Hubbard_U(3)=4.3,
    tot_charge=+1,
 /
 &electrons
    mixing_beta = 0.3 
    conv_thr = 1.0d-7,
    electron_maxstep=200,
 /
 &ions
 /
CELL_PARAMETERS (angstrom)
   10.265191682	0.000000000	0.000000000
   -5.13259584	8.889917538	0.000000000
   0.000000000	0.000000000	13.991233495
ATOMIC_SPECIES
 O     1.  o_pbe_v1.2.uspp.F.UPF
 Fe1   1.  fe_pbe_v1.5.uspp.F.UPF
 Fe2   1.  fe_pbe_v1.5.uspp.F.UPF
 Sn    1.  sn_pbe_v1.4.uspp.F.UPF
K_POINTS automatic
2 2 2 0 0 0
ATOMIC_POSITIONS (crystal)
O        0.319042714   0.332931514   0.916426234
O        0.166520608   0.485532286   0.916169465
O        0.485678094   0.318925251   0.082424555
O        0.333310350   0.014151076   0.083027400
O        0.180818681   0.166514136   0.083152766
O        0.013781641   0.180459175   0.916556148
O        0.155767782   0.001344532   0.250401458
O       -0.003473249   0.149620714   0.249735395
O        0.314258527   0.485772393   0.417021902
O        0.166118835   0.180991602   0.416824490
O        0.015747799   0.336307143   0.416267766
O        0.342154034   0.344872314   0.249931167
O        0.484864435   0.166567879   0.584302635
O        0.333703186   0.319086278   0.583701345
O        0.152697137   0.152714170   0.750595405
O        0.000341342   0.348038992   0.750732454
O        0.347153857   0.000196867   0.750659086
O        0.180990789   0.014979864   0.584190626
Fe1      0.165186639   0.331624529   0.020672723
Fe2      0.000249692  -0.001424125   0.144761131
Fe1      0.333100908   0.166435216   0.978471120
Fe2     -0.000262311  -0.000398398   0.855807806
Fe1     -0.000962597  -0.002929712   0.353536119
Fe2      0.329211686   0.163261203   0.479896733
Fe1      0.157832019   0.328229942   0.311155798
Fe2      0.333054445   0.165171123   0.186886467
Fe1      0.333471772   0.167018655   0.689025516
Fe2      0.166969894   0.333652965   0.812814178
Fe1      0.002820311   0.003465874   0.648173091
Fe2      0.166180674   0.331213823   0.522898778
O        0.818958302   0.333345940   0.916487124
O        0.666651613   0.486052186   0.916518463
O        0.985426956   0.318818263   0.082400552
O        0.832835640   0.013530294   0.083405461
O        0.680585983   0.167021848   0.081745164
O        0.513895292   0.180924286   0.916403418
O        0.649582786   0.009324920   0.248539041
O        0.498216765   0.153430542   0.250378339
O        0.819484709   0.483452716   0.416389865
O        0.666258883   0.181116919   0.417150903
O        0.513653385   0.330040659   0.417249830
O        0.849131800   0.347986986   0.248855694
O        0.986369135   0.168392282   0.585302296
O        0.833835359   0.320563168   0.584069145
O        0.652300661   0.152691340   0.750739977
O        0.500155194   0.347504618   0.750424385
O        0.847064822  -0.000209531   0.749981431
O        0.680554676   0.019868570   0.584439300
Fe1      0.666870708   0.333552911   0.020854810
Fe2      0.500370484   0.000372805   0.144596617
Fe1      0.832889157   0.166596967   0.978234413
Fe2      0.500217295   0.000161230   0.855900118
Fe1      0.499168711  -0.000323773   0.353931991
Fe2      0.837654389   0.176320260   0.479116877
Fe1      0.669496314   0.328181690   0.311202419
Fe2      0.832478397   0.166649266   0.185773062
Fe1      0.834279276   0.168156456   0.690309472
Fe2      0.666654834   0.333105308   0.812953554
Fe1      0.496138185   0.000240444   0.648383876
Fe2      0.665656660   0.331932895   0.523055889
O        0.319329089   0.833295183   0.916584289
O        0.166726464   0.985788069   0.916540421
O        0.485584073   0.818475265   0.083418389
O        0.331615248   0.513263354   0.080969316
O        0.180910705   0.666446821   0.082889775
O        0.014381546   0.680798415   0.916441487
O        0.151545742   0.498805080   0.249108288
O        0.001596907   0.652344707   0.249405916
O        0.319113361   0.985525080   0.417521968
O        0.163907619   0.681013690   0.416863913
O        0.015591486   0.833400282   0.417631140
O        0.347255693   0.846480176   0.250507687
O        0.482694911   0.662348235   0.583323429
O        0.331927119   0.818580586   0.585065527
O        0.152208738   0.652466521   0.750666757
O        0.000138771   0.847638723   0.750478414
O        0.347548681   0.499685039   0.750352787
O        0.180099801   0.513435378   0.584181164
Fe1      0.167356342   0.833368254   0.020996177
Fe2     -0.000108146   0.499546756   0.143876743
Fe1      0.333042511   0.666217697   0.978186351
Fe2     -0.000031229   0.499923149   0.855493242
Fe1      0.000975208   0.502020831   0.352301654
Fe2      0.324371708   0.665661657   0.480999224
Fe1      0.167315360   0.834260452   0.311414964
Fe2      0.331167091   0.666048202   0.186921397
Fe1      0.332139561   0.666265266   0.690416517
Fe2      0.166283467   0.833305115   0.812849296
Fe1      0.000514401   0.500108720   0.646851028
Fe2      0.167768664   0.835669556   0.521763797
O        0.818899712   0.833179234   0.916399959
O        0.666573685   0.985436029   0.916687728
O        0.986655664   0.818581962   0.081870911
O        0.833274537   0.513912729   0.082910208
O        0.681917429   0.667048537   0.082174912
O        0.514051416   0.680778075   0.916583416
O        0.652605433   0.496251848   0.249993011
O        0.497412222   0.645742476   0.245298990
O        0.825281980   0.994358136   0.420331346
O        0.674631898   0.683062313   0.417737809
O        0.507359475   0.829792236   0.419204703
O        0.859218028   0.847771346   0.248572817
O        0.987149073   0.666802276   0.584277634
O        0.837633776   0.819409351   0.583888287
O        0.652693580   0.652769366   0.750018573
O        0.500112139   0.847322826   0.750056001
O        0.847425678   0.499633490   0.750577459
O        0.681478465   0.513811597   0.583962182
Fe1      0.666673578   0.833814492   0.021468316
Fe2      0.499120209   0.500736912   0.138572067
Fe1      0.833762935   0.666879594   0.978148806
Fe2      0.499859444   0.500109535   0.855780490
Sn       0.499411665   0.501023136   0.351296249
Fe2      0.841862018   0.662570382   0.480720549
Fe1      0.674459176   0.844648889   0.302308282
Fe2      0.836251751   0.667506378   0.186722158
Fe1      0.833483788   0.665677656   0.690407483
Fe2      0.666601531   0.833300818   0.812927906
Fe1      0.500512798   0.496856608   0.648012082
Sn       0.667489965   0.835895769   0.518055366
