&control
 calculation='scf',
 outdir='./',
 prefix="BN",
 verbosity='high',
 wf_collect=.true.,
 etot_conv_thr=1d-5,
 forc_conv_thr=1d-3
 pseudo_dir="~/pseudo-ONCV-proj",
/
&system
 ibrav=0,
 nat=72,
 ntyp=3,
 nbnd=168,
 ecutwfc=55,
 ecutfock=110,
 nspin=2,
 tot_magnetization=0,
 starting_magnetization(1)=1,
 tot_charge=0

!input_dft = 'pbe0'
!exx_fraction = 0.409
/
&electrons
 electron_maxstep=600,
 mixing_beta=0.7,
 conv_thr=1.0D-8,
/
&cell
/
&ions
/
ATOMIC_SPECIES
B  0.0  B_ONCV_PBE-1.0.upf
N  0.0  N_ONCV_PBE-1.0.upf
C  0.0  C_ONCV_PBE-1.0.upf
K_POINTS automatic
1 1 1 0 0 0
CELL_PARAMETERS angstrom
15.04380218  0.          0.        
-7.52188605 13.02832383  0.        
 0.          0.         15.87532077
ATOMIC_POSITIONS crystal
B    0.0553294620 0.1109201648 0.5000000000
B    0.0556236008 0.2778378718 0.5000000000
B    0.0556236106 0.4444520804 0.5000000000
B    0.0553294708 0.6110756466 0.5000000000
B    0.0556402062 0.7778020094 0.5000000000
B    0.0556401942 0.9445045472 0.5000000000
B    0.2221029062 0.1108983562 0.5000000000
B    0.2220228004 0.2775572756 0.5000000000
B    0.2229226552 0.4447944852 0.5000000000
B    0.2220228060 0.6111318578 0.5000000000
B    0.2221029174 0.7778708712 0.5000000000
B    0.2222065250 0.9444364300 0.5000000000
B    0.3888814436 0.1108082444 0.5000000000
B    0.3887029220 0.2765446980 0.5000000000
B    0.3892085792 0.4427018014 0.5000000000
B    0.3892085744 0.6131731306 0.5000000000
B    0.3887029228 0.7788245706 0.5000000000
B    0.3888814426 0.9447395384 0.5000000000
B    0.5556372812 0.1111518140 0.5000000000
B    0.5555544258 0.2781334372 0.5000000000
B    0.5545733262 0.4447451518 0.5000000000
B    0.5545733250 0.7764945170 0.5000000000
B    0.5555544260 0.9440873332 0.5000000000
B    0.7221791018 0.1110136820 0.5000000000
B    0.7221791004 0.2778317822 0.5000000000
B    0.7220382710 0.4445849232 0.5000000000
B    0.7225806922 0.6120317092 0.5000000000
B    0.7225806652 0.7772153074 0.5000000000
B    0.7220382666 0.9441196878 0.5000000000
B    0.8887642878 0.1110074256 0.5000000000
B    0.8888416776 0.2777540192 0.5000000000
B    0.8887642980 0.4444232064 0.5000000000
B    0.8886119980 0.6111424910 0.5000000000
B    0.8895445058 0.7781054256 0.5000000000
B    0.8886119826 0.9441358384 0.5000000000
N    0.1109434446 0.0553909102 0.5000000000
N    0.1107620344 0.2218535368 0.5000000000
N    0.1113183706 0.3889923284 0.5000000000
N    0.1107620516 0.5555747982 0.5000000000
N    0.1109434542 0.7222188392 0.5000000000
N    0.1110394310 0.8888528690 0.5000000000
N    0.2777558568 0.0554190566 0.5000000000
N    0.2775954116 0.2217189262 0.5000000000
N    0.2776602204 0.3881967496 0.5000000000
N    0.2776602232 0.5561297416 0.5000000000
N    0.2775954256 0.7225427646 0.5000000000
N    0.2777558496 0.8890030728 0.5000000000
N    0.4445939632 0.0556301286 0.5000000000
N    0.4445907698 0.2216579890 0.5000000000
N    0.4443570654 0.3870407840 0.5000000000
N    0.4443570664 0.7239825746 0.5000000000
N    0.4445907656 0.8895990456 0.5000000000
N    0.6111572824 0.0553395026 0.5000000000
N    0.6111572784 0.2224840792 0.5000000000
N    0.6110723678 0.3898994890 0.5000000000
N    0.6108432770 0.5581577164 0.5000000000
N    0.6108432476 0.7193518434 0.5000000000
N    0.6110723632 0.8878391660 0.5000000000
N    0.7775634008 0.0552046178 0.5000000000
N    0.7776692364 0.2221677766 0.5000000000
N    0.7775634064 0.3890250862 0.5000000000
N    0.7771375168 0.5557490216 0.5000000000
N    0.7784172180 0.7225417566 0.5000000000
N    0.7771374960 0.8880547598 0.5000000000
N    0.9440371496 0.0551536496 0.5000000000
N    0.9443099022 0.2221123126 0.5000000000
N    0.9443099146 0.3888638894 0.5000000000
N    0.9440371576 0.5555497958 0.5000000000
N    0.9444543482 0.7222151302 0.5000000000
N    0.9444543352 0.8889055052 0.5000000000
C    0.5562607456 0.6114635414 0.5000000000
C    0.4494164894 0.5580413950 0.5000000000
