 &control
    calculation = 'relax',
    prefix='fe2o3',
    wf_collect = .true.,
 /
 &system
    ibrav=  0, nat=  120, ntyp= 4,
    ecutwfc = 40.0, ecutrho = 240.0,
    occupations='smearing', smearing='mp', degauss=0.005,
    nspin=2,
    starting_magnetization(2)= -0.5, starting_magnetization(3)= 0.5,
    lda_plus_u=.true.
    Hubbard_U(2)=4.3, Hubbard_U(3)=4.3,
 /
 &electrons
    mixing_beta = 0.3 
    conv_thr = 1.0d-7,
    electron_maxstep=200,
 /
 &ions
 /
CELL_PARAMETERS (angstrom)
   10.265191682	0.000000000	0.000000000
   -5.13259584	8.889917538	0.000000000
   0.000000000	0.000000000	13.991233495
ATOMIC_SPECIES
 O     1.  o_pbe_v1.2.uspp.F.UPF
 Fe1   1.  fe_pbe_v1.5.uspp.F.UPF
 Fe2   1.  fe_pbe_v1.5.uspp.F.UPF
 Sn    1.  sn_pbe_v1.4.uspp.F.UPF
K_POINTS automatic
2 2 2 0 0 0
ATOMIC_POSITIONS (crystal)
O        0.318706896   0.332943840   0.917294076
O        0.164760445   0.485266868   0.917896614
O        0.485618459   0.318969865   0.082704079
O        0.333001365   0.013948977   0.083111503
O        0.180747575   0.166387832   0.083311126
O        0.013365878   0.179827584   0.917061838
O        0.155570743   0.001216304   0.250022038
O       -0.003596388   0.149503494   0.249484301
O        0.314306905   0.485825629   0.416873640
O        0.165388263   0.180281888   0.415805919
O        0.015457547   0.335904742   0.415840789
O        0.342361485   0.344993768   0.249846665
O        0.485554690   0.166971522   0.584511056
O        0.328398240   0.312398877   0.582506590
O        0.152468491   0.152372013   0.751076680
O       -0.000244124   0.347664995   0.751197542
O        0.347065421   0.000141213   0.750842718
O        0.179960558   0.013369370   0.584176833
Fe1      0.165403485   0.331771566   0.020626137
Fe2      0.000225975  -0.001463727   0.144779449
Fe1      0.333281935   0.166532690   0.978274054
Fe2     -0.000174369  -0.000572413   0.855317241
Fe1     -0.001357948  -0.003518890   0.353530701
Fe2      0.328643899   0.163338689   0.480586158
Fe1      0.157798513   0.327826296   0.311442137
Fe2      0.333069539   0.165176427   0.186781941
Fe1      0.335442269   0.169948719   0.689590650
Fe2      0.166331121   0.333422658   0.813462833
Fe1      0.003362823   0.002651498   0.648303787
Fe2      0.166030689   0.330505808   0.523103675
O        0.819530650   0.333530471   0.917033230
O        0.666641242   0.485884524   0.917043571
O        0.985516901   0.318717736   0.082689365
O        0.832743246   0.013350727   0.083552164
O        0.680666866   0.167148693   0.082002701
O        0.514262665   0.179374261   0.918134780
O        0.649773657   0.009171223   0.248075726
O        0.498512516   0.153700792   0.250010103
O        0.820221725   0.483172510   0.415055223
O        0.666656488   0.181138625   0.416701976
O        0.513870960   0.330230112   0.417200570
O        0.849091370   0.347983662   0.248371676
O        0.985715947   0.167368477   0.585329861
O        0.835393520   0.320994965   0.583985833
O        0.652650940   0.152060697   0.751118585
O        0.499050557   0.342256399   0.754374614
O        0.847191822   0.000039210   0.750418378
O        0.680752370   0.021157181   0.584071728
Fe1      0.666808442   0.333666452   0.020660419
Fe2      0.500247410   0.000415169   0.144580183
Fe1      0.832809541   0.166519452   0.978251433
Fe2      0.500081050  -0.000276490   0.855549776
Fe1      0.499224341   0.000246034   0.353743022
Fe2      0.837573861   0.176700353   0.479472235
Fe1      0.669930120   0.328449005   0.311558169
Fe2      0.832450843   0.166608671   0.185608120
Fe1      0.834374801   0.168052397   0.690161890
Fe2      0.666600719   0.332565940   0.813157303
Fe1      0.495295293  -0.000339483   0.648216343
Fe2      0.666633646   0.333297065   0.523785887
O        0.319114689   0.832888442   0.916659377
O        0.166913785   0.985777207   0.916508962
O        0.485538717   0.818510274   0.083484760
O        0.331745347   0.513446585   0.081263500
O        0.180894753   0.666713354   0.082993578
O        0.014365610   0.681079071   0.916516686
O        0.151745706   0.498609414   0.248849987
O        0.001623889   0.652506526   0.249034740
O        0.319207006   0.986079948   0.416755688
O        0.164554653   0.681031442   0.416235953
O        0.015179200   0.833143838   0.417062301
O        0.347027520   0.846522095   0.249953727
O        0.481163813   0.670707770   0.581252815
O        0.331088770   0.820720192   0.584784836
O        0.152780555   0.652607877   0.750605364
O       -0.000926614   0.846602462   0.750311378
O        0.343581264   0.501210292   0.754895074
O        0.180502918   0.512994481   0.584351665
Fe1      0.167341091   0.833281633   0.020456662
Fe2     -0.000087267   0.499601533   0.143772306
Fe1      0.333353663   0.666011706   0.977785869
Fe2     -0.000062352   0.500172748   0.855159013
Fe1      0.001813077   0.502240049   0.352146558
Fe2      0.326299671   0.667416640   0.481530335
Fe1      0.167323075   0.834269520   0.311721263
Fe2      0.331217552   0.666162191   0.186745481
Fe1      0.334132443   0.664456518   0.690271613
Fe2      0.165889653   0.832989927   0.811804298
Fe1      0.001744309   0.501364280   0.646924017
Fe2      0.167703900   0.835821927   0.521583906
O        0.819769126   0.834036201   0.917307372
O        0.666513854   0.985584540   0.917089065
O        0.986807894   0.818634038   0.081959082
O        0.833282215   0.514006695   0.083035148
O        0.681969850   0.667095243   0.082535355
O        0.514760202   0.680776072   0.917078397
O        0.652403194   0.496282315   0.249914151
O        0.497342339   0.645709058   0.245260674
O        0.825406253   0.994739841   0.420055268
O        0.674488343   0.683369217   0.417376369
O        0.508201476   0.831482472   0.417292304
O        0.858492234   0.847536744   0.248412891
O        0.990181839   0.667821187   0.584126250
O        0.837459504   0.819972125   0.583915291
O        0.653497739   0.653817865   0.751364859
O        0.500285651   0.847653733   0.750406103
O        0.847961324   0.499657486   0.751069637
O        0.691525224   0.516480601   0.582333067
Fe1      0.666498052   0.833567284   0.021166046
Fe2      0.499124776   0.500727581   0.138830054
Fe1      0.833501942   0.666787897   0.977966609
Fe2      0.499454868   0.498995619   0.852706655
Sn       0.499417736   0.501057981   0.351687897
Fe2      0.841412328   0.661148645   0.481183325
Fe1      0.673878898   0.844417536   0.302710401
Fe2      0.836084651   0.667472651   0.186663021
Fe1      0.829514244   0.662630381   0.689490375
Fe2      0.666535088   0.832676328   0.812927958
Fe1      0.496279691   0.497175502   0.645581647
Sn       0.667955184   0.836954283   0.517855385
