&control
 calculation='scf',
 outdir='./',
 prefix="BN",
 verbosity='high',
 wf_collect=.true.,
 etot_conv_thr=1d-5,
 forc_conv_thr=1d-3
 pseudo_dir="~/pseudo-ONCV-proj",
/
&system
 ibrav=0,
 nat=72,
 ntyp=3,
 nbnd=168,
 ecutwfc=55,
 ecutfock=110,
 nspin=2,
 tot_magnetization=0,
 starting_magnetization(1)=1,
 tot_charge=0
 occupations='from_input'
!input_dft = 'pbe0'
!exx_fraction = 0.409
/
&electrons
 electron_maxstep=600,
 mixing_beta=0.7,
 conv_thr=1.0D-8,
/
&cell
/
&ions
/
ATOMIC_SPECIES
B  0.0  B_ONCV_PBE-1.0.upf
N  0.0  N_ONCV_PBE-1.0.upf
C  0.0  C_ONCV_PBE-1.0.upf
K_POINTS automatic
1 1 1 0 0 0
CELL_PARAMETERS angstrom
15.04380218  0.          0.        
-7.52188605 13.02832383  0.        
 0.          0.         15.87532077
ATOMIC_POSITIONS crystal
B    0.0553290885 0.1109335195 0.5000000000
B    0.0556630014 0.2778810060 0.5000000000
B    0.0556630114 0.4444483458 0.5000000000
B    0.0553290967 0.6110619174 0.5000000000
B    0.0556489735 0.7778010806 0.5000000000
B    0.0556489623 0.9445142453 0.5000000000
B    0.2221085775 0.1109152055 0.5000000000
B    0.2220803131 0.2776216296 0.5000000000
B    0.2230403510 0.4448533323 0.5000000000
B    0.2220803190 0.6111250149 0.5000000000
B    0.2221085908 0.7778596923 0.5000000000
B    0.2222055890 0.9444359627 0.5000000000
B    0.3888866751 0.1108048038 0.5000000000
B    0.3886908462 0.2765228782 0.5000000000
B    0.3893797590 0.4428132571 0.5000000000
B    0.3893797548 0.6132328556 0.5000000000
B    0.3886908472 0.7788343171 0.5000000000
B    0.3888866749 0.9447482134 0.5000000000
B    0.5556520118 0.1111591798 0.5000000000
B    0.5555832875 0.2781649528 0.5000000000
B    0.5545449993 0.4447426042 0.5000000000
B    0.5545449960 0.7764687365 0.5000000000
B    0.5555832883 0.9440846803 0.5000000000
B    0.7221854522 0.1110136212 0.5000000000
B    0.7221854503 0.2778381916 0.5000000000
B    0.7219924220 0.4445766933 0.5000000000
B    0.7224871243 0.6120781550 0.5000000000
B    0.7224870965 0.7770752896 0.5000000000
B    0.7219924186 0.9440820649 0.5000000000
B    0.8887599184 0.1110042556 0.5000000000
B    0.8888446689 0.2777555146 0.5000000000
B    0.8887599278 0.4444220046 0.5000000000
B    0.8885727445 0.6111426568 0.5000000000
B    0.8895410424 0.7781036949 0.5000000000
B    0.8885727302 0.9440964181 0.5000000000
N    0.1109518262 0.0553957498 0.5000000000
N    0.1108003861 0.2218815922 0.5000000000
N    0.1113691541 0.3890177209 0.5000000000
N    0.1108004031 0.5555850978 0.5000000000
N    0.1109518361 0.7222223821 0.5000000000
N    0.1110458667 0.8888560857 0.5000000000
N    0.2777625934 0.0554280696 0.5000000000
N    0.2776265346 0.2217478881 0.5000000000
N    0.2777670261 0.3882553624 0.5000000000
N    0.2777670283 0.5561779354 0.5000000000
N    0.2776265479 0.7225449271 0.5000000000
N    0.2777625857 0.8890007952 0.5000000000
N    0.4445868583 0.0556265769 0.5000000000
N    0.4445964249 0.2216855612 0.5000000000
N    0.4444300183 0.3871214090 0.5000000000
N    0.4444300163 0.7239749054 0.5000000000
N    0.4445964194 0.8895771309 0.5000000000
N    0.6111590821 0.0553428082 0.5000000000
N    0.6111590781 0.2224825745 0.5000000000
N    0.6110775384 0.3898850838 0.5000000000
N    0.6106813040 0.5581386016 0.5000000000
N    0.6106812719 0.7192089838 0.5000000000
N    0.6110775328 0.8878587418 0.5000000000
N    0.7775637227 0.0551884959 0.5000000000
N    0.7776736528 0.2221699849 0.5000000000
N    0.7775637293 0.3890415298 0.5000000000
N    0.7770517064 0.5557783612 0.5000000000
N    0.7783670580 0.7225166754 0.5000000000
N    0.7770516840 0.8879396042 0.5000000000
N    0.9440218296 0.0551256652 0.5000000000
N    0.9443246365 0.2221122356 0.5000000000
N    0.9443246494 0.3888787023 0.5000000000
N    0.9440218384 0.5555624620 0.5000000000
N    0.9444377685 0.7222130263 0.5000000000
N    0.9444377555 0.8888910285 0.5000000000
C    0.5556599434 0.6111631384 0.5000000000
C    0.4496588899 0.5581625965 0.5000000000
OCCUPATIONS
     1.0000   1.0000   1.0000   1.0000   1.0000   1.0000   1.0000   1.0000
     1.0000   1.0000   1.0000   1.0000   1.0000   1.0000   1.0000   1.0000
     1.0000   1.0000   1.0000   1.0000   1.0000   1.0000   1.0000   1.0000
     1.0000   1.0000   1.0000   1.0000   1.0000   1.0000   1.0000   1.0000
     1.0000   1.0000   1.0000   1.0000   1.0000   1.0000   1.0000   1.0000
     1.0000   1.0000   1.0000   1.0000   1.0000   1.0000   1.0000   1.0000
     1.0000   1.0000   1.0000   1.0000   1.0000   1.0000   1.0000   1.0000
     1.0000   1.0000   1.0000   1.0000   1.0000   1.0000   1.0000   1.0000
     1.0000   1.0000   1.0000   1.0000   1.0000   1.0000   1.0000   1.0000
     1.0000   1.0000   1.0000   1.0000   1.0000   1.0000   1.0000   1.0000
     1.0000   1.0000   1.0000   1.0000   1.0000   1.0000   1.0000   1.0000
     1.0000   1.0000   1.0000   1.0000   1.0000   1.0000   1.0000   1.0000
     1.0000   1.0000   1.0000   1.0000   1.0000   1.0000   1.0000   1.0000
     1.0000   1.0000   1.0000   1.0000   1.0000   1.0000   1.0000   1.0000
     1.0000   1.0000   1.0000   1.0000   1.0000   1.0000   1.0000   1.0000
     1.0000   1.0000   1.0000   1.0000   1.0000   1.0000   1.0000   1.0000
     1.0000   1.0000   1.0000   1.0000   1.0000   1.0000   1.0000   1.0000
     1.0000   1.0000   1.0000   1.0000   1.0000   1.0000   1.0000   0.0000
     1.0000   0.0000   0.0000   0.0000   0.0000   0.0000   0.0000   0.0000
     0.0000   0.0000   0.0000   0.0000   0.0000   0.0000   0.0000   0.0000
     0.0000   0.0000   0.0000   0.0000   0.0000   0.0000   0.0000   0.0000
     1.0000   1.0000   1.0000   1.0000   1.0000   1.0000   1.0000   1.0000
     1.0000   1.0000   1.0000   1.0000   1.0000   1.0000   1.0000   1.0000
     1.0000   1.0000   1.0000   1.0000   1.0000   1.0000   1.0000   1.0000
     1.0000   1.0000   1.0000   1.0000   1.0000   1.0000   1.0000   1.0000
     1.0000   1.0000   1.0000   1.0000   1.0000   1.0000   1.0000   1.0000
     1.0000   1.0000   1.0000   1.0000   1.0000   1.0000   1.0000   1.0000
     1.0000   1.0000   1.0000   1.0000   1.0000   1.0000   1.0000   1.0000
     1.0000   1.0000   1.0000   1.0000   1.0000   1.0000   1.0000   1.0000
     1.0000   1.0000   1.0000   1.0000   1.0000   1.0000   1.0000   1.0000
     1.0000   1.0000   1.0000   1.0000   1.0000   1.0000   1.0000   1.0000
     1.0000   1.0000   1.0000   1.0000   1.0000   1.0000   1.0000   1.0000
     1.0000   1.0000   1.0000   1.0000   1.0000   1.0000   1.0000   1.0000
     1.0000   1.0000   1.0000   1.0000   1.0000   1.0000   1.0000   1.0000
     1.0000   1.0000   1.0000   1.0000   1.0000   1.0000   1.0000   1.0000
     1.0000   1.0000   1.0000   1.0000   1.0000   1.0000   1.0000   1.0000
     1.0000   1.0000   1.0000   1.0000   1.0000   1.0000   1.0000   1.0000
     1.0000   1.0000   1.0000   1.0000   1.0000   1.0000   1.0000   1.0000
     1.0000   1.0000   1.0000   1.0000   1.0000   1.0000   1.0000   1.0000
     0.0000   0.0000   0.0000   0.0000   0.0000   0.0000   0.0000   0.0000
     0.0000   0.0000   0.0000   0.0000   0.0000   0.0000   0.0000   0.0000
     0.0000   0.0000   0.0000   0.0000   0.0000   0.0000   0.0000   0.0000

