# functional/basis
! PBE def2-TZVP

# TDDFT block
%TDDFT  NROOTS  5
        DOSOC   TRUE
END

# geometry
* xyzFile -1 1 rotated.xyz

