&control
 calculation='scf',
 outdir='./',
 prefix="BN",
 verbosity='high',
 wf_collect=.true.,
 etot_conv_thr=1d-5,
 forc_conv_thr=1d-3
 pseudo_dir="~/pseudo-ONCV-proj",
/
&system
 ibrav=0,
 nat=72,
 ntyp=3,
 nbnd=168,
 ecutwfc=55,
 ecutfock=110,
 nspin=2,
 tot_magnetization=0,
 starting_magnetization(1)=1,
 tot_charge=0
 occupations='from_input'
!input_dft = 'pbe0'
!exx_fraction = 0.409
/
&electrons
 electron_maxstep=600,
 mixing_beta=0.7,
 conv_thr=1.0D-8,
/
&cell
/
&ions
/
ATOMIC_SPECIES
B  0.0  B_ONCV_PBE-1.0.upf
N  0.0  N_ONCV_PBE-1.0.upf
C  0.0  C_ONCV_PBE-1.0.upf
K_POINTS automatic
1 1 1 0 0 0
CELL_PARAMETERS angstrom
15.04380218  0.          0.        
-7.52188605 13.02832383  0.        
 0.          0.         15.87532077
ATOMIC_POSITIONS crystal
B    0.0553292130 0.1109290679 0.5000000000
B    0.0556498679 0.2778666279 0.5000000000
B    0.0556498778 0.4444495907 0.5000000000
B    0.0553292214 0.6110664938 0.5000000000
B    0.0556460511 0.7778013902 0.5000000000
B    0.0556460396 0.9445110126 0.5000000000
B    0.2221066871 0.1109095891 0.5000000000
B    0.2220611422 0.2776001783 0.5000000000
B    0.2230011191 0.4448337166 0.5000000000
B    0.2220611480 0.6111272959 0.5000000000
B    0.2221066997 0.7778634186 0.5000000000
B    0.2222059010 0.9444361185 0.5000000000
B    0.3888849313 0.1108059507 0.5000000000
B    0.3886948715 0.2765301515 0.5000000000
B    0.3893226991 0.4427761052 0.5000000000
B    0.3893226947 0.6132129473 0.5000000000
B    0.3886948724 0.7788310683 0.5000000000
B    0.3888849308 0.9447453217 0.5000000000
B    0.5556471016 0.1111567245 0.5000000000
B    0.5555736669 0.2781544476 0.5000000000
B    0.5545544416 0.4447434534 0.5000000000
B    0.5545544390 0.7764773300 0.5000000000
B    0.5555736675 0.9440855646 0.5000000000
B    0.7221833354 0.1110136415 0.5000000000
B    0.7221833337 0.2778360551 0.5000000000
B    0.7220077050 0.4445794366 0.5000000000
B    0.7225183136 0.6120626731 0.5000000000
B    0.7225182861 0.7771219622 0.5000000000
B    0.7220077013 0.9440946059 0.5000000000
B    0.8887613749 0.1110053123 0.5000000000
B    0.8888436718 0.2777550161 0.5000000000
B    0.8887613845 0.4444224052 0.5000000000
B    0.8885858290 0.6111426015 0.5000000000
B    0.8895421969 0.7781042718 0.5000000000
B    0.8885858143 0.9441095582 0.5000000000
N    0.1109490323 0.0553941366 0.5000000000
N    0.1107876022 0.2218722404 0.5000000000
N    0.1113522263 0.3890092567 0.5000000000
N    0.1107876193 0.5555816646 0.5000000000
N    0.1109490421 0.7222212011 0.5000000000
N    0.1110437215 0.8888550135 0.5000000000
N    0.2777603479 0.0554250653 0.5000000000
N    0.2776161603 0.2217382341 0.5000000000
N    0.2777314242 0.3882358248 0.5000000000
N    0.2777314266 0.5561618708 0.5000000000
N    0.2776161738 0.7225442063 0.5000000000
N    0.2777603403 0.8890015544 0.5000000000
N    0.4445892266 0.0556277608 0.5000000000
N    0.4445945399 0.2216763705 0.5000000000
N    0.4444057007 0.3870945340 0.5000000000
N    0.4444056997 0.7239774618 0.5000000000
N    0.4445945348 0.8895844358 0.5000000000
N    0.6111584822 0.0553417063 0.5000000000
N    0.6111584782 0.2224830761 0.5000000000
N    0.6110758149 0.3898898855 0.5000000000
N    0.6107352950 0.5581449732 0.5000000000
N    0.6107352638 0.7192566037 0.5000000000
N    0.6110758096 0.8878522165 0.5000000000
N    0.7775636154 0.0551938699 0.5000000000
N    0.7776721807 0.2221692488 0.5000000000
N    0.7775636217 0.3890360486 0.5000000000
N    0.7770803099 0.5557685813 0.5000000000
N    0.7783837780 0.7225250358 0.5000000000
N    0.7770802880 0.8879779894 0.5000000000
N    0.9440269363 0.0551349933 0.5000000000
N    0.9443197251 0.2221122613 0.5000000000
N    0.9443197378 0.3888737647 0.5000000000
N    0.9440269448 0.5555582399 0.5000000000
N    0.9444432951 0.7222137276 0.5000000000
N    0.9444432821 0.8888958541 0.5000000000
C    0.5558602108 0.6112632727 0.5000000000
C    0.4495780897 0.5581221960 0.5000000000
OCCUPATIONS
     1.0000   1.0000   1.0000   1.0000   1.0000   1.0000   1.0000   1.0000
     1.0000   1.0000   1.0000   1.0000   1.0000   1.0000   1.0000   1.0000
     1.0000   1.0000   1.0000   1.0000   1.0000   1.0000   1.0000   1.0000
     1.0000   1.0000   1.0000   1.0000   1.0000   1.0000   1.0000   1.0000
     1.0000   1.0000   1.0000   1.0000   1.0000   1.0000   1.0000   1.0000
     1.0000   1.0000   1.0000   1.0000   1.0000   1.0000   1.0000   1.0000
     1.0000   1.0000   1.0000   1.0000   1.0000   1.0000   1.0000   1.0000
     1.0000   1.0000   1.0000   1.0000   1.0000   1.0000   1.0000   1.0000
     1.0000   1.0000   1.0000   1.0000   1.0000   1.0000   1.0000   1.0000
     1.0000   1.0000   1.0000   1.0000   1.0000   1.0000   1.0000   1.0000
     1.0000   1.0000   1.0000   1.0000   1.0000   1.0000   1.0000   1.0000
     1.0000   1.0000   1.0000   1.0000   1.0000   1.0000   1.0000   1.0000
     1.0000   1.0000   1.0000   1.0000   1.0000   1.0000   1.0000   1.0000
     1.0000   1.0000   1.0000   1.0000   1.0000   1.0000   1.0000   1.0000
     1.0000   1.0000   1.0000   1.0000   1.0000   1.0000   1.0000   1.0000
     1.0000   1.0000   1.0000   1.0000   1.0000   1.0000   1.0000   1.0000
     1.0000   1.0000   1.0000   1.0000   1.0000   1.0000   1.0000   1.0000
     1.0000   1.0000   1.0000   1.0000   1.0000   1.0000   1.0000   0.0000
     1.0000   0.0000   0.0000   0.0000   0.0000   0.0000   0.0000   0.0000
     0.0000   0.0000   0.0000   0.0000   0.0000   0.0000   0.0000   0.0000
     0.0000   0.0000   0.0000   0.0000   0.0000   0.0000   0.0000   0.0000
     1.0000   1.0000   1.0000   1.0000   1.0000   1.0000   1.0000   1.0000
     1.0000   1.0000   1.0000   1.0000   1.0000   1.0000   1.0000   1.0000
     1.0000   1.0000   1.0000   1.0000   1.0000   1.0000   1.0000   1.0000
     1.0000   1.0000   1.0000   1.0000   1.0000   1.0000   1.0000   1.0000
     1.0000   1.0000   1.0000   1.0000   1.0000   1.0000   1.0000   1.0000
     1.0000   1.0000   1.0000   1.0000   1.0000   1.0000   1.0000   1.0000
     1.0000   1.0000   1.0000   1.0000   1.0000   1.0000   1.0000   1.0000
     1.0000   1.0000   1.0000   1.0000   1.0000   1.0000   1.0000   1.0000
     1.0000   1.0000   1.0000   1.0000   1.0000   1.0000   1.0000   1.0000
     1.0000   1.0000   1.0000   1.0000   1.0000   1.0000   1.0000   1.0000
     1.0000   1.0000   1.0000   1.0000   1.0000   1.0000   1.0000   1.0000
     1.0000   1.0000   1.0000   1.0000   1.0000   1.0000   1.0000   1.0000
     1.0000   1.0000   1.0000   1.0000   1.0000   1.0000   1.0000   1.0000
     1.0000   1.0000   1.0000   1.0000   1.0000   1.0000   1.0000   1.0000
     1.0000   1.0000   1.0000   1.0000   1.0000   1.0000   1.0000   1.0000
     1.0000   1.0000   1.0000   1.0000   1.0000   1.0000   1.0000   1.0000
     1.0000   1.0000   1.0000   1.0000   1.0000   1.0000   1.0000   1.0000
     1.0000   1.0000   1.0000   1.0000   1.0000   1.0000   1.0000   1.0000
     0.0000   0.0000   0.0000   0.0000   0.0000   0.0000   0.0000   0.0000
     0.0000   0.0000   0.0000   0.0000   0.0000   0.0000   0.0000   0.0000
     0.0000   0.0000   0.0000   0.0000   0.0000   0.0000   0.0000   0.0000

