&control
 calculation='relax',
 outdir='./temp',
 prefix="BN",
 verbosity='high',
 wf_collect=.true.,
 etot_conv_thr = 1d-5,
 forc_conv_thr = 1d-3,
/
&system
 ibrav=0,
 nat=97,
 ntyp=3,
 nbnd=220,
 ecutwfc=50,
 nspin=2,
!  tot_magnetization=1,
 occupations = "smearing", smearing = "cold", degauss = 1d-3,
 starting_magnetization(3)=1,
 tot_charge=-2,
/
&electrons
 electron_maxstep = 600,
 conv_thr=1.0D-8,
 mixing_beta=0.7,
 startingpot='file',
/
&cell
/
&ions
/
ATOMIC_SPECIES
B  0.0 B_ONCV_PBE-1.0.upf
N  0.0 N_ONCV_PBE-1.0.upf
Ti  0.0  Ti_ONCV_PBE-1.0.upf
K_POINTS automatic
3 3 1 0 0 0
CELL_PARAMETERS angstrom
17.5869960785         0.0000000000         0.0000000000
-8.7934979185        15.2307898548         0.0000000000
 0.0000000000         0.0000000000        15.0000000000
ATOMIC_POSITIONS (crystal)
B        0.046930746   0.094536934   0.487066263
B        0.046787588   0.237469627   0.490957591
B        0.046900073   0.380219958   0.496240466
B        0.047290963   0.522946327   0.498056182
B        0.047540030   0.665726285   0.496028470
B        0.047471951   0.808722009   0.491098028
B        0.047414789   0.951762201   0.487613630
B        0.189964242   0.094503594   0.489379943
B        0.189217693   0.236774628   0.491441616
B        0.189743563   0.379761190   0.499507219
B        0.190724194   0.522384878   0.503102589
B        0.191126044   0.665387650   0.500584970
B        0.190699859   0.808546809   0.495858815
B        0.190496738   0.951744394   0.491576955
B        0.333327365   0.095085076   0.495505827
B        0.332415632   0.237362403   0.496893754
B        0.330805347   0.378309368   0.511016996
B        0.333977327   0.520111775   0.519586917
B        0.334839672   0.664464400   0.509778048
B        0.333878105   0.808153479   0.500778705
B        0.333528813   0.951716886   0.496355719
B        0.476105256   0.095647325   0.499351889
B        0.475790474   0.239659069   0.505353965
B        0.473134240   0.382111523   0.529900750
B        0.479262449   0.665426102   0.520346790
B        0.476901246   0.808574815   0.503393710
B        0.476332998   0.951988532   0.498430559
B        0.618744210   0.095481726   0.498388798
B        0.618313218   0.238810413   0.503846940
B        0.617233640   0.382154337   0.514566796
B        0.617410064   0.526301777   0.531543239
B        0.621065806   0.668535615   0.511863807
B        0.619513778   0.809511429   0.499400182
B        0.619048620   0.952351552   0.496058505
B        0.761467222   0.095270909   0.493714559
B        0.761117376   0.238130923   0.499116551
B        0.760480980   0.380956347   0.503851967
B        0.759670450   0.523497749   0.505848664
B        0.761864176   0.666789168   0.496600771
B        0.762406480   0.809939487   0.490254449
B        0.761755399   0.952419052   0.489928167
B        0.904208768   0.095017600   0.488821440
B        0.903968026   0.237784356   0.494084680
B        0.903782972   0.380522739   0.498246861
B        0.903631278   0.523157305   0.499084899
B        0.904157858   0.665896200   0.494921726
B        0.904679911   0.809198555   0.488120520
B        0.904635892   0.952227418   0.486234540
N        0.094522076   0.046699900   0.487312728
N        0.093678221   0.189227532   0.488359107
N        0.093891678   0.332321924   0.494716245
N        0.094770256   0.475358406   0.498362152
N        0.095444484   0.618257217   0.497888940
N        0.095405939   0.761144473   0.494302340
N        0.095184885   0.904037359   0.489605519
N        0.237656964   0.046603937   0.491175240
N        0.236470679   0.188699847   0.490630899
N        0.235313345   0.330703009   0.497423815
N        0.237300585   0.474638362   0.506127686
N        0.238592595   0.617908429   0.504998729
N        0.238347022   0.760914288   0.499166596
N        0.238112428   0.903845327   0.494455025
N        0.380762053   0.046831447   0.496851807
N        0.380163747   0.189309783   0.498859031
N        0.378093811   0.330038727   0.505898427
N        0.375677062   0.469479783   0.530298705
N        0.382012567   0.617345401   0.518924447
N        0.381375703   0.760706464   0.505169992
N        0.381017309   0.903837655   0.498252218
N        0.523597962   0.047471178   0.498600808
N        0.523219726   0.190605290   0.502608838
N        0.522084686   0.333633189   0.515952656
N        0.530032055   0.623953731   0.531972849
N        0.524681803   0.762041157   0.506588725
N        0.523929878   0.904518417   0.498600203
N        0.666430743   0.047847033   0.495646956
N        0.666082461   0.190605696   0.500569681
N        0.665567255   0.333711553   0.507108312
N        0.665789121   0.477266110   0.517081407
N        0.669313701   0.621219582   0.506696133
N        0.668529634   0.763892781   0.497159246
N        0.666919101   0.905329534   0.494152344
N        0.809171463   0.047817334   0.489898922
N        0.808834042   0.190405529   0.495619296
N        0.808663500   0.333163991   0.500434862
N        0.808696817   0.476046004   0.502690537
N        0.809976569   0.619087266   0.498818006
N        0.810481578   0.762688340   0.489226847
N        0.809943057   0.905482314   0.486914661
N        0.951806991   0.047363193   0.486645825
N        0.951404886   0.190054322   0.490699297
N        0.951405269   0.332824134   0.495863403
N        0.951805331   0.475669335   0.498175798
N        0.952432731   0.618489007   0.496479482
N        0.952610145   0.761537245   0.490065949
N        0.952480650   0.904645136   0.486423775
Ti       0.492831409   0.505950004   0.590821103
