 &control
    calculation = 'relax',
    prefix='fe2o3',
    wf_collect = .true.,
 /
 &system
    ibrav=  0, nat=  120, ntyp= 3,
    ecutwfc = 40.0, ecutrho = 240.0,
    occupations='smearing', smearing='mp', degauss=0.005,
    nspin=2,
    starting_magnetization(2)= -0.5, starting_magnetization(3)= 0.5,
    lda_plus_u=.true.
    Hubbard_U(2)=4.3, Hubbard_U(3)=4.3,
 /
 &electrons
    mixing_beta = 0.3 
    conv_thr = 1.0d-7,
 /
 &ions
 /
CELL_PARAMETERS (angstrom)
   10.265191682	0.000000000	0.000000000
   -5.13259584	8.889917538	0.000000000
   0.000000000	0.000000000	13.991233495
ATOMIC_SPECIES
 O    1.  o_pbe_v1.2.uspp.F.UPF
 Fe1   1.  fe_pbe_v1.5.uspp.F.UPF
 Fe2   1.  fe_pbe_v1.5.uspp.F.UPF
K_POINTS automatic
2 2 2 0 0 0
ATOMIC_POSITIONS (crystal)
O	0.3190939075	0.33333348	0.916666811
O	0.16666652	0.4857604275	0.916666811
O	0.4857604275	0.319093907	0.083333189
O	0.33333348	0.0142395725	0.083333189
O	0.1809060925	0.16666652	0.083333189
O	0.0142395725	0.180906093	0.916666811
O	0.152427299	0.000000091	0.249999635
O	-0.000000091	0.1524272075	0.249999635
O	0.319093828	0.485760494	0.416666682
O	0.1666666665	0.1809061725	0.416666682
O	0.0142395055	0.3333333335	0.416666682
O	0.3475727925	0.3475727015	0.249999635
O	0.4857604945	0.1666666665	0.583333318
O	0.3333333335	0.3190938275	0.583333318
O	0.1524272075	0.1524272985	0.750000365
O	0.000000091	0.3475727925	0.750000365
O	0.347572701	-0.000000091	0.750000365
O	0.180906172	0.014239506	0.583333318
Fe1	0.1666665	0.3333335	0.020978278
Fe2	0.000000000	0.000000000	0.145689891
Fe1	0.3333335	0.1666665	0.979021722
Fe2	0.000000000	0.000000000	0.854310109
Fe1	0.000000000	0.000000000	0.354311291
Fe2	0.3333335	0.1666665	0.479023132
Fe1	0.1666665	0.3333335	0.312354967
Fe2	0.3333335	0.1666665	0.187642879
Fe1	0.3333335	0.1666665	0.687645033
Fe2	0.1666665	0.3333335	0.812357121
Fe1	0.000000000	0.000000000	0.645688709
Fe2	0.1666665	0.3333335	0.520976868
O	0.8190939075	0.33333348	0.916666811
O	0.66666652	0.4857604275	0.916666811
O	0.9857604275	0.319093907	0.083333189
O	0.83333348	0.0142395725	0.083333189
O	0.6809060925	0.16666652	0.083333189
O	0.5142395725	0.180906093	0.916666811
O	0.652427299	0.000000091	0.249999635
O	0.499999909	0.1524272075	0.249999635
O	0.819093828	0.485760494	0.416666682
O	0.6666666665	0.1809061725	0.416666682
O	0.5142395055	0.3333333335	0.416666682
O	0.8475727925	0.3475727015	0.249999635
O	0.9857604945	0.1666666665	0.583333318
O	0.8333333335	0.3190938275	0.583333318
O	0.6524272075	0.1524272985	0.750000365
O	0.500000091	0.3475727925	0.750000365
O	0.847572701	-0.000000091	0.750000365
O	0.680906172	0.014239506	0.583333318
Fe1	0.6666665	0.3333335	0.020978278
Fe2	0.500000000	0.000000000	0.145689891
Fe1	0.8333335	0.1666665	0.979021722
Fe2	0.500000000	0.000000000	0.854310109
Fe1	0.500000000	0.000000000	0.354311291
Fe2	0.8333335	0.1666665	0.479023132
Fe1	0.6666665	0.3333335	0.312354967
Fe2	0.8333335	0.1666665	0.187642879
Fe1	0.8333335	0.1666665	0.687645033
Fe2	0.6666665	0.3333335	0.812357121
Fe1	0.500000000	0.000000000	0.645688709
Fe2	0.6666665	0.3333335	0.520976868
O	0.3190939075	0.83333348	0.916666811
O	0.16666652	0.9857604275	0.916666811
O	0.4857604275	0.819093907	0.083333189
O	0.33333348	0.5142395725	0.083333189
O	0.1809060925	0.66666652	0.083333189
O	0.0142395725	0.680906093	0.916666811
O	0.152427299	0.500000091	0.249999635
O	-0.000000091	0.6524272075	0.249999635
O	0.319093828	0.985760494	0.416666682
O	0.1666666665	0.6809061725	0.416666682
O	0.0142395055	0.8333333335	0.416666682
O	0.3475727925	0.8475727015	0.249999635
O	0.4857604945	0.6666666665	0.583333318
O	0.3333333335	0.8190938275	0.583333318
O	0.1524272075	0.6524272985	0.750000365
O	0.000000091	0.8475727925	0.750000365
O	0.347572701	0.499999909	0.750000365
O	0.180906172	0.514239506	0.583333318
Fe1	0.1666665	0.8333335	0.020978278
Fe2	0.000000000	0.500000000	0.145689891
Fe1	0.3333335	0.6666665	0.979021722
Fe2	0.00000000	0.5000000000	0.854310109
Fe1	0.00000000	0.5000000000	0.354311291
Fe2	0.3333335	0.6666665	0.479023132
Fe1	0.1666665	0.8333335	0.312354967
Fe2	0.3333335	0.6666665	0.187642879
Fe1	0.3333335	0.6666665	0.687645033
Fe2	0.1666665	0.8333335	0.812357121
Fe1	0.000000000	0.500000000	0.645688709
Fe2	0.1666665	0.8333335	0.520976868
O	0.8190939075	0.83333348	0.916666811
O	0.66666652	0.9857604275	0.916666811
O	0.9857604275	0.819093907	0.083333189
O	0.83333348	0.5142395725	0.083333189
O	0.6809060925	0.66666652	0.083333189
O	0.5142395725	0.680906093	0.916666811
O	0.652427299	0.500000091	0.249999635
O	0.499999909	0.6524272075	0.249999635
O	0.819093828	0.985760494	0.416666682
O	0.6666666665	0.6809061725	0.416666682
O	0.5142395055	0.8333333335	0.416666682
O	0.8475727925	0.8475727015	0.249999635
O	0.9857604945	0.6666666665	0.583333318
O	0.8333333335	0.8190938275	0.583333318
O	0.6524272075	0.6524272985	0.750000365
O	0.500000091	0.8475727925	0.750000365
O	0.847572701	0.499999909	0.750000365
O	0.680906172	0.514239506	0.583333318
Fe1	0.6666665	0.8333335	0.020978278
Fe2	0.500000000	0.500000000	0.145689891
Fe1	0.8333335	0.6666665	0.979021722
Fe2	0.500000000	0.500000000	0.854310109
Fe1	0.500000000	0.500000000	0.354311291
Fe2	0.8333335	0.6666665	0.479023132
Fe1	0.6666665	0.8333335	0.312354967
Fe2	0.8333335	0.6666665	0.187642879
Fe1	0.8333335	0.6666665	0.687645033
Fe2	0.6666665	0.8333335	0.812357121
Fe1	0.500000000	0.500000000	0.645688709
Fe2	0.6666665	0.8333335	0.520976868
